n_jobs = 50;
n_machines = 5;
n_resources = 8;
max_periods = 36;
processing = [33,38,54,22,52,53,41,36,59,50,58,32,50,35,18,2,52,54,44,57,98,228,128,212,182,148,183,221,182,195,230,224,239,209,187,153,234,183,194,145,2694,2796,1871,2285,2302,2156,2482,2464,2636,1449];
due = [27,101,104,9,2142,81,15803,176,132,3577,5616,5424,127,4563,273,342,201,2684,346,275,1101,10792,565,608,21160,12681,18945,192,1538,884,1818,316,669,1519,3633,908,11064,2440,2148,2165,5256,5771,1789,8631,15292,2225,3423,6517,7267,13226];
initial_setup = [25,26,17,29,21,27,26,21,26,26,18,26,23,24,10,5,25,28,1,16,101,100,108,88,50,112,56,52,116,76,76,109,118,55,114,55,91,115,108,103,1412,939,1384,870,517,1196,951,455,1355,1376];
eligible = [{1,2,3,4,5},{1,2,3},{1,2,3,4,5},{1,3,4,5},{2,4,5},{2,5},{1,5},{4,5},{2,3,5},{1,2,3,5},{2,5},{1,3},{2,5},{2,4,5},{2,4},{4},{3,4},{2,4,5},{5},{2,3,4,5},{3,4},{1,3,4},{2,3,5},{3,4},{5},{1,3},{5},{2},{2,3},{4,5},{4},{1,2,3,5},{3,4,5},{2,3,4,5},{1,2,3,5},{1,5},{1,3,4},{1,2,3,4,5},{1,2,3,5},{2,3,4},{1,2,3,4,5},{1,3,4,5},{1,2,3,4},{2,5},{1,3,4},{1,2,3,5},{1,2,3,4,5},{3},{1,2,3,4,5},{1,2,3,5},];
setup = [[0,66,97,91,77,84,27,76,81,102,29,94,22,74,72,23,23,75,43,86,265,119,335,178,105,358,225,122,276,260,319,284,301,227,285,392,381,255,218,356,4543,4820,1290,3726,3857,5221,5115,3633,2901,1942],[96,0,75,84,25,36,8,20,57,101,38,94,10,56,28,9,11,71,21,83,247,371,349,97,45,271,85,97,290,98,96,318,415,112,330,353,299,283,208,281,3778,2829,5143,3484,4760,5306,4285,3461,4652,2716],[91,100,0,25,64,80,20,57,88,26,39,84,35,58,58,24,34,80,61,85,83,331,440,132,167,118,279,136,286,329,333,377,289,308,336,372,311,318,224,271,3559,2751,4781,4899,3576,4059,4409,3864,4698,844],[89,105,29,0,59,70,28,63,65,26,10,91,10,49,99,22,24,75,82,114,83,253,277,161,125,118,279,40,156,221,346,379,350,210,265,279,222,324,212,322,4174,4565,4219,3555,3880,2875,4661,3579,3482,844],[63,27,68,40,0,97,26,73,103,71,31,29,33,19,111,30,20,70,74,103,108,269,307,93,117,118,293,137,404,339,283,142,312,252,308,100,338,210,184,414,2895,1298,3880,4140,2715,3055,3859,1117,4056,3037],[36,27,40,32,89,0,22,78,69,56,10,29,24,73,28,9,9,81,78,48,83,119,288,46,121,118,180,152,254,377,96,129,263,209,335,145,101,249,230,112,3260,1298,4425,4625,1205,4039,5121,1117,3322,2946],[109,60,55,50,89,66,0,72,28,51,10,50,10,42,28,9,9,66,82,77,83,129,298,46,109,118,248,40,116,219,96,133,174,265,250,341,116,214,181,110,4529,1298,2576,4459,3977,1454,4224,1117,2952,2466],[54,27,88,46,96,62,30,0,73,83,10,29,10,74,104,26,28,56,21,98,128,206,114,183,145,118,240,40,116,323,268,202,241,321,231,189,259,110,150,259,3800,1298,2804,5181,2780,1967,3130,1117,3027,844],[48,72,31,50,55,82,8,75,0,95,38,58,22,51,28,9,9,69,77,94,209,384,365,107,133,268,239,40,318,221,96,356,387,224,302,164,352,278,180,221,4009,1298,3715,5205,3310,4009,4472,3747,2881,2214],[69,101,29,25,58,96,16,54,62,0,31,93,27,45,28,9,9,88,63,80,83,422,351,170,145,118,203,129,368,207,96,311,343,171,275,387,199,264,236,299,4195,5162,3632,3844,2801,5069,5001,4285,4608,844],[57,27,50,34,66,28,24,74,74,67,0,29,20,57,28,9,9,55,61,81,83,119,331,46,97,118,177,95,431,260,96,179,158,182,333,255,101,282,242,110,4055,1298,4497,4898,1205,3988,4583,1117,2581,2945],[58,91,55,60,25,28,8,20,28,80,10,0,10,19,28,9,11,25,21,88,323,377,303,93,45,326,85,40,197,98,96,367,250,92,251,237,339,428,182,279,3548,3838,3063,1412,3607,2391,4165,4416,3022,2431],[48,27,51,41,75,65,23,61,73,47,27,29,0,60,28,9,9,78,74,65,83,119,295,46,45,118,334,138,419,215,96,141,147,271,319,142,101,348,223,126,3655,1298,2868,3773,1205,3942,3023,1117,2730,3066],[76,27,83,53,25,110,22,59,104,52,23,29,36,0,93,30,22,74,54,90,114,186,374,111,114,118,313,130,410,320,287,133,278,227,187,100,246,322,233,271,4789,1298,3839,3775,3528,5172,3753,1117,4632,2332],[69,27,82,52,39,68,8,48,70,30,37,29,22,56,0,35,30,97,21,92,101,164,402,123,45,118,85,126,312,140,211,102,313,259,249,100,293,320,189,254,1236,1298,4577,2659,4013,3371,3897,1117,4920,2388],[72,27,113,53,25,28,8,55,28,26,10,29,10,19,97,0,23,86,21,75,195,195,114,151,45,118,85,40,116,120,333,95,351,215,87,100,202,110,63,221,1236,1298,2505,1412,3795,1358,3092,1117,2322,844],[56,59,82,54,25,28,8,59,28,57,10,103,10,19,91,19,0,61,21,108,318,240,315,155,45,359,85,40,124,138,265,292,422,283,285,100,279,346,100,424,4413,1298,4557,1412,3755,1605,4931,3810,3225,1358],[78,27,85,48,72,71,29,70,73,51,21,29,23,68,92,27,29,0,51,67,120,242,283,133,94,118,202,87,431,368,349,189,408,240,278,215,304,296,191,242,2971,1298,4532,3495,3383,4713,3634,1117,3318,1812],[45,27,49,30,75,75,28,20,70,73,10,29,10,57,28,9,9,54,0,59,83,119,114,46,93,118,180,40,116,341,96,113,144,145,152,162,101,110,182,110,3887,1298,1290,4916,1205,2089,4998,1117,1725,1355],[48,75,82,74,89,72,29,79,109,83,31,107,30,67,57,29,34,74,60,0,242,304,270,164,151,451,226,111,265,289,232,363,365,227,87,138,388,283,249,368,4441,1298,4218,2877,3786,4476,4664,3063,4566,2763],[82,51,29,25,39,28,8,74,28,26,10,102,10,19,110,35,18,66,21,61,0,441,243,118,45,118,85,40,200,131,193,352,412,312,205,100,399,290,102,239,3959,1298,2537,1412,3838,2850,3599,3533,2258,844],[28,75,90,75,38,28,8,48,28,88,10,83,10,19,82,31,19,78,21,113,299,0,260,125,45,286,85,40,148,129,226,198,451,189,272,238,394,276,141,405,3740,2698,1290,1412,3816,2458,5176,4421,3793,2696],[48,51,59,58,83,83,29,20,104,62,30,98,32,66,28,9,11,62,21,103,310,305,0,141,149,271,319,93,462,390,96,252,235,147,297,218,215,110,234,269,4505,1298,3393,4339,3228,3527,3348,3755,4806,3301],[76,74,107,50,37,28,8,63,28,56,10,102,10,19,73,24,32,51,21,90,324,422,367,0,45,373,85,40,190,98,206,192,379,223,228,100,274,299,80,110,2898,1298,2898,1412,2689,1358,3880,4022,2420,1049],[46,27,43,34,95,86,21,65,72,46,10,29,10,48,28,9,9,47,81,62,83,119,281,46,0,118,270,40,116,250,96,141,156,220,209,199,101,148,231,110,3175,1298,1290,5221,1205,2279,3030,1117,2440,1016],[101,74,29,25,25,28,8,20,28,26,10,89,10,19,28,9,9,25,21,96,83,423,199,164,45,0,85,40,158,98,96,373,379,102,334,366,200,384,204,291,2709,2789,4393,1412,4182,2280,3655,2643,2982,844],[37,27,37,35,92,65,23,54,109,50,10,29,10,48,28,9,9,46,50,87,83,119,251,46,172,118,0,40,116,311,96,187,229,246,200,139,101,228,164,110,4180,1298,1290,3480,1205,1609,3792,1117,2496,990],[28,27,29,25,25,71,8,20,28,36,28,29,35,43,28,9,9,68,21,29,83,119,274,46,45,118,85,0,346,98,96,100,114,82,230,100,101,272,195,110,1236,1298,3601,3397,1205,5142,1367,1117,3130,3173],[51,64,29,63,25,59,8,20,60,53,27,67,30,60,28,9,9,52,21,78,180,283,410,102,45,432,85,142,0,98,96,263,337,89,301,100,371,360,187,251,1236,1298,4698,4730,2931,3070,1367,4035,3545,2930],[78,27,64,53,92,71,20,49,65,81,10,29,10,43,110,27,24,81,78,95,141,177,288,128,130,118,321,40,116,0,232,174,295,223,152,172,288,236,226,248,3831,1298,3962,1412,2915,2308,5113,1117,3226,863],[76,27,87,38,33,28,8,65,28,26,10,29,10,19,101,19,34,62,21,115,192,216,114,142,45,118,85,40,116,98,0,95,235,290,87,100,101,111,63,415,1236,1298,2572,1412,1205,1358,5263,1117,3648,844],[90,70,96,67,85,88,19,77,83,56,31,83,25,62,28,9,10,97,42,102,243,456,327,97,143,427,184,92,363,348,96,0,395,224,341,323,304,288,238,284,4150,4299,3394,4834,4165,3453,3895,1117,4766,2326],[58,90,78,74,78,88,19,51,88,79,10,102,10,60,86,32,23,71,62,88,313,241,243,179,149,357,179,40,202,205,372,229,0,231,191,172,380,296,174,414,4129,1298,3730,4828,2308,1861,5013,4267,2568,1177],[49,85,96,76,73,74,26,79,85,66,24,66,38,67,79,21,29,93,83,78,217,426,347,160,176,346,269,94,339,286,371,281,376,0,270,138,234,383,241,272,4755,1298,4143,4290,3115,4656,4693,2597,3872,2691],[62,54,81,89,82,110,22,49,66,91,38,115,27,59,28,9,11,76,74,29,238,471,439,123,137,379,259,109,296,353,96,303,277,199,0,310,198,329,247,273,4370,5004,4357,4244,2751,3475,4290,2241,3595,1955],[86,79,73,91,25,87,23,63,96,52,10,76,10,19,28,9,9,49,62,54,83,130,198,46,168,118,324,40,116,319,96,134,250,147,240,0,101,190,222,110,3223,4311,3203,3410,4151,2010,4117,1117,2793,1759],[86,83,102,97,25,28,8,45,30,95,10,110,10,19,103,22,27,60,21,100,197,433,315,133,45,428,85,40,153,131,96,324,424,239,247,382,0,400,211,397,2809,3804,3347,1412,1205,2535,5165,2934,3180,2514],[108,87,97,78,90,82,18,20,72,86,31,89,36,73,103,23,26,93,21,108,324,370,114,135,104,390,181,102,238,231,292,363,372,318,315,259,297,0,211,329,4334,4249,4611,3959,4809,2887,4808,3682,4422,2571],[57,72,105,81,72,97,19,61,66,79,27,85,35,72,28,9,10,89,62,73,330,342,326,148,95,306,330,155,244,374,96,285,413,243,264,314,220,332,0,191,4315,4823,4590,4648,3279,3990,5090,4331,3672,2445],[64,90,68,88,25,52,8,63,48,57,36,84,34,40,71,22,18,72,21,100,298,430,362,46,45,237,85,133,246,98,198,261,302,174,231,100,401,336,158,0,3268,1298,4298,4716,3711,1358,5040,2847,2730,2817],[98,92,88,96,70,68,26,79,81,79,36,75,30,65,56,34,32,95,76,84,241,470,386,155,162,442,311,129,116,268,192,231,376,214,328,262,222,331,168,293,0,3096,4770,4508,3991,3530,1367,2643,3732,2091],[60,71,95,53,77,100,8,63,28,85,10,89,10,65,103,19,18,57,49,113,299,434,343,157,172,326,250,40,185,321,194,201,337,282,306,339,248,253,186,320,3989,0,3664,4170,3856,2543,4170,3502,3171,1931],[28,82,71,84,25,55,8,47,54,86,31,99,24,56,69,28,27,58,21,100,310,119,266,148,45,430,85,157,292,133,321,280,433,221,331,316,354,418,245,354,4371,3809,0,3686,4146,3282,5035,2711,3691,2690],[61,27,56,33,58,91,16,57,68,79,28,29,32,72,28,9,9,56,76,75,83,119,454,46,156,118,265,95,386,98,96,124,192,282,309,224,101,229,228,127,3179,1298,3214,0,1205,5171,3934,1117,2995,1717],[81,81,66,98,25,28,8,66,28,55,10,109,10,19,97,20,34,78,21,99,211,383,340,175,45,267,85,40,183,98,96,328,361,294,244,310,101,306,131,294,4265,2979,4230,1412,0,2209,4412,2304,3609,1531],[67,85,89,64,64,90,21,57,82,73,35,93,31,53,28,9,9,98,68,87,251,355,336,46,141,289,272,113,278,363,96,194,385,167,306,244,261,313,241,110,3689,2859,4603,5390,4144,0,4978,3927,4119,2513],[104,100,66,90,57,107,27,78,93,82,34,82,36,57,85,31,20,95,45,89,258,252,296,146,167,465,192,102,116,201,287,345,346,183,335,282,221,267,218,259,1236,4058,4996,5007,4498,2794,0,2740,3802,2979],[33,52,29,94,25,28,8,20,28,99,10,67,10,19,28,9,9,25,21,102,245,434,197,135,45,269,85,40,164,98,96,95,247,91,281,100,342,292,73,218,3410,1298,3126,1412,3558,1790,5054,0,1240,1342],[96,75,101,83,86,87,19,67,70,60,27,77,26,62,100,33,33,64,77,105,221,314,443,147,166,239,246,104,370,283,366,209,390,283,224,254,336,377,227,337,4084,3858,4777,4474,4459,2746,4226,3547,0,2724],[86,89,29,25,78,61,21,63,78,26,32,81,21,44,28,9,9,86,48,95,83,432,363,92,108,118,306,129,452,233,96,271,454,266,331,350,384,300,209,203,4642,3022,4500,5237,3936,4981,5159,3878,4893,0],];
precedences = [{},{},{},{},{23},{},{42},{},{},{8},{27},{18},{},{36},{},{},{},{41},{},{},{},{37},{},{},{27},{14,10},{36},{},{},{},{},{},{},{},{45},{},{40},{},{},{},{},{10},{},{},{},{},{},{},{},{5},];
required_resource = [[3,4,2,0,2,1,0,2],[0,0,3,0,0,0,0,0],[2,1,2,1,0,2,0,3],[1,1,1,3,0,3,0,1],[0,0,0,0,0,0,0,0],[0,0,0,0,0,0,0,0],[3,2,1,0,3,0,1,3],[0,0,0,0,0,0,0,0],[0,0,0,0,0,0,0,0],[2,3,1,4,0,1,0,2],[0,0,0,0,0,0,0,0],[4,4,3,1,1,2,2,0],[0,0,0,0,0,0,0,0],[0,0,0,0,0,0,0,0],[0,0,0,0,0,0,0,0],[0,0,0,0,0,0,0,0],[0,0,0,0,0,0,0,0],[0,0,0,0,0,0,0,0],[0,0,0,0,0,0,0,0],[0,0,0,0,0,0,0,0],[0,0,0,0,0,0,0,0],[3,4,1,0,3,3,0,3],[0,0,0,0,0,0,0,0],[0,0,0,0,0,0,0,0],[0,0,0,0,0,0,0,0],[4,2,4,3,0,2,0,3],[0,0,0,0,0,0,0,0],[0,0,0,0,0,0,0,0],[0,0,0,0,0,0,0,0],[0,0,0,0,0,0,0,0],[0,0,0,0,0,0,0,0],[3,3,2,0,3,3,4,2],[0,0,0,0,0,0,0,0],[0,0,0,0,0,0,0,0],[0,0,0,2,0,0,0,0],[1,1,0,4,2,1,1,2],[0,0,3,0,4,1,2,3],[2,4,4,4,1,4,0,3],[0,3,0,0,1,4,0,0],[0,0,0,0,0,0,0,0],[1,0,2,4,0,0,4,1],[2,1,1,0,1,0,2,3],[2,4,4,0,1,4,0,2],[0,0,0,0,0,0,0,0],[0,0,1,0,2,4,2,4],[0,0,1,0,4,3,0,0],[2,0,4,4,0,0,4,3],[0,0,0,0,0,0,0,0],[0,0,3,0,3,0,0,0],[4,2,1,3,0,1,0,1],];
n_res_periods = [11,11,13,11,17,17,16,36,];
res_period_start = [[0,9687,19374,29061,38748,48435,58122,67809,77496,87183,96870,0,0,0,0,0,0,0,0,0,0,0,0,0,0,0,0,0,0,0,0,0,0,0,0,0],[0,9954,19908,29862,39816,49770,59724,69678,79632,89586,99540,0,0,0,0,0,0,0,0,0,0,0,0,0,0,0,0,0,0,0,0,0,0,0,0,0],[0,8281,16562,24843,33124,41405,49686,57967,66248,74529,82810,91091,99372,0,0,0,0,0,0,0,0,0,0,0,0,0,0,0,0,0,0,0,0,0,0,0],[0,9729,19458,29187,38916,48645,58374,68103,77832,87561,97290,0,0,0,0,0,0,0,0,0,0,0,0,0,0,0,0,0,0,0,0,0,0,0,0,0],[0,5981,11962,17943,23924,29905,35886,41867,47848,53829,59810,65791,71772,77753,83734,89715,95696,0,0,0,0,0,0,0,0,0,0,0,0,0,0,0,0,0,0,0],[0,5892,11784,17676,23568,29460,35352,41244,47136,53028,58920,64812,70704,76596,82488,88380,94272,0,0,0,0,0,0,0,0,0,0,0,0,0,0,0,0,0,0,0],[0,6451,12902,19353,25804,32255,38706,45157,51608,58059,64510,70961,77412,83863,90314,96765,0,0,0,0,0,0,0,0,0,0,0,0,0,0,0,0,0,0,0,0],[0,2784,5568,8352,11136,13920,16704,19488,22272,25056,27840,30624,33408,36192,38976,41760,44544,47328,50112,52896,55680,58464,61248,64032,66816,69600,72384,75168,77952,80736,83520,86304,89088,91872,94656,97440],];
res_period_end = [[9687,19374,29061,38748,48435,58122,67809,77496,87183,96870,100000,0,0,0,0,0,0,0,0,0,0,0,0,0,0,0,0,0,0,0,0,0,0,0,0,0],[9954,19908,29862,39816,49770,59724,69678,79632,89586,99540,100000,0,0,0,0,0,0,0,0,0,0,0,0,0,0,0,0,0,0,0,0,0,0,0,0,0],[8281,16562,24843,33124,41405,49686,57967,66248,74529,82810,91091,99372,100000,0,0,0,0,0,0,0,0,0,0,0,0,0,0,0,0,0,0,0,0,0,0,0],[9729,19458,29187,38916,48645,58374,68103,77832,87561,97290,100000,0,0,0,0,0,0,0,0,0,0,0,0,0,0,0,0,0,0,0,0,0,0,0,0,0],[5981,11962,17943,23924,29905,35886,41867,47848,53829,59810,65791,71772,77753,83734,89715,95696,100000,0,0,0,0,0,0,0,0,0,0,0,0,0,0,0,0,0,0,0],[5892,11784,17676,23568,29460,35352,41244,47136,53028,58920,64812,70704,76596,82488,88380,94272,100000,0,0,0,0,0,0,0,0,0,0,0,0,0,0,0,0,0,0,0],[6451,12902,19353,25804,32255,38706,45157,51608,58059,64510,70961,77412,83863,90314,96765,100000,0,0,0,0,0,0,0,0,0,0,0,0,0,0,0,0,0,0,0,0],[2784,5568,8352,11136,13920,16704,19488,22272,25056,27840,30624,33408,36192,38976,41760,44544,47328,50112,52896,55680,58464,61248,64032,66816,69600,72384,75168,77952,80736,83520,86304,89088,91872,94656,97440,100000],];
res_period_capacity = [[17,16,0,17,17,15,17,0,0,18,14,0,0,0,0,0,0,0,0,0,0,0,0,0,0,0,0,0,0,0,0,0,0,0,0,0],[26,26,24,21,20,18,15,0,15,0,16,0,0,0,0,0,0,0,0,0,0,0,0,0,0,0,0,0,0,0,0,0,0,0,0,0],[20,22,23,20,0,17,15,17,17,0,19,16,14,0,0,0,0,0,0,0,0,0,0,0,0,0,0,0,0,0,0,0,0,0,0,0],[11,0,13,13,16,19,0,17,15,17,17,0,0,0,0,0,0,0,0,0,0,0,0,0,0,0,0,0,0,0,0,0,0,0,0,0],[22,24,0,21,22,18,17,16,13,16,13,14,0,0,11,10,0,0,0,0,0,0,0,0,0,0,0,0,0,0,0,0,0,0,0,0],[21,20,17,16,14,0,14,15,17,14,11,14,12,12,16,15,17,0,0,0,0,0,0,0,0,0,0,0,0,0,0,0,0,0,0,0],[17,19,0,0,0,16,16,13,10,12,12,11,11,12,10,14,0,0,0,0,0,0,0,0,0,0,0,0,0,0,0,0,0,0,0,0],[23,21,19,17,16,0,0,14,13,0,0,10,8,9,11,10,9,11,14,0,17,0,15,15,15,16,16,17,17,16,14,13,14,16,15,15],];
