n_jobs = 100;
n_machines = 7;
n_resources = 10;
max_periods = 108;
processing = [50,46,44,56,54,41,51,19,54,57,49,43,14,57,22,52,47,54,43,42,54,59,59,52,44,59,20,58,45,59,53,58,59,31,56,55,58,48,55,53,221,221,235,202,232,194,215,220,112,218,188,171,233,91,162,189,222,158,223,116,77,224,239,237,223,220,142,235,230,219,219,220,202,227,204,229,213,203,165,200,2460,2410,2629,2657,2231,2681,1769,2268,2521,2766,2776,1894,1513,2346,2696,611,1622,1085,2097,2017];
due = [9,85,59,22,8740,16465,82,19207,146,16,12,103,118,75,2286,189,16108,116,213,17920,38,7504,52,324,103,222,416,94,6048,350,66,410,162,145,12625,137,197,106,691,6811,823,5878,6235,454,20083,1042,428,13151,1456,224,247,805,1564,1472,565,1360,13638,1207,446,10576,779,1836,1311,16403,2254,11605,972,20199,2997,621,3311,2248,2748,10295,754,2863,1665,42894,7377,1437,25851,11520,11923,3102,19044,6977,19872,6036,18210,11241,6170,6783,4139,8355,2826,26865,22072,10983,16238,13863];
initial_setup = [26,27,27,18,27,10,24,19,19,15,28,24,26,19,25,6,23,24,21,28,22,16,25,22,7,23,28,16,24,29,21,26,29,26,25,21,17,20,28,20,102,109,116,114,90,88,108,116,64,118,111,112,117,99,108,54,117,107,71,110,40,116,116,48,118,119,49,91,89,117,99,97,115,91,110,119,118,101,117,106,1267,1218,1428,1403,1436,885,1154,1184,1418,772,1073,1435,1055,1361,1040,975,1297,426,1044,1099];
eligible = [{1,2,4},{1,5},{1,2,3,4,5,6},{1,2,5,6,7},{1,4,5,6},{2,7},{3,5,6,7},{2,7},{3},{2,4,5,6},{2,3,4,5,7},{1,2,3,6,7},{4,5,6,7},{6,7},{1,3,6,7},{7},{3,4,5,6,7},{1,3,5,6,7},{4,7},{1,3,4,5,6},{1,2,3,4,5,6,7},{1},{1,2,3,4,5,6,7},{1,2,3,5},{1,2},{1,3,4,5},{7},{1,2,3,4,5,6,7},{2,3,4,5,7},{4,5},{3,4,5,7},{1,2,3,4},{1,2,3,4,5,6,7},{1,2,5},{3,4,5,6,7},{2,3,4,5,7},{1,3,4,5,7},{3,4,5,6},{2,3,4,5,6,7},{1,3,4},{1,2,3,4,7},{1,2,4,6},{1,3,4,6},{1,2,3,4,5,6,7},{3,4},{3,5,6},{1,2,4,5,6,7},{1,2,3,5,7},{3},{1,3,7},{1,2,3,4,5,6,7},{1,2,3,4,5,6,7},{1,2,6},{5},{2,3,4,5,6,7},{2,3,5,6},{1,2,3,4,5,6,7},{4,6,7},{1,2,5,6},{2,3,6,7},{6},{2,3,5,7},{1,2,3,4,5,6,7},{2,4,5},{1,2,3,4,5,7},{1,2,3,4,6,7},{2},{5},{1,3,4,5,7},{1,2,3,4,5,6,7},{1,3,4,7},{1,5},{1,2,3,4,5,6},{1,2,6},{3,4},{1,2,3,4,5,6,7},{1,2,3,4,5,6,7},{6},{1,2,6,7},{2,3,6},{3,7},{1,4,7},{3,4,6},{2,3,5,6},{1,5},{3,4,7},{3,5},{6},{1,3,4,5,6},{5},{1,2,3,4,5,6,7},{2,3,4,7},{2,7},{1,2,3,4,5,6,7},{1,2,3,4,6,7},{3,6},{2,7},{7},{6},{6},];
setup = [[0,106,49,89,27,77,20,34,0,20,39,82,39,25,74,21,12,57,37,48,42,10,38,87,67,79,22,57,43,22,49,74,34,53,62,44,57,25,69,48,371,418,373,265,296,109,341,447,73,266,263,330,359,33,410,113,259,138,167,346,52,285,337,321,353,199,122,50,240,167,309,80,298,198,183,327,86,42,269,319,775,1276,2955,1185,1893,2814,395,1000,2078,1195,4835,3480,5027,3843,2756,821,4586,206,1064,1359],[40,0,41,89,59,25,61,16,0,68,41,71,48,25,71,21,29,34,14,38,55,8,49,52,61,24,22,109,18,83,74,26,59,73,20,59,71,56,66,60,312,210,281,262,114,405,217,232,73,329,395,165,389,75,230,353,229,113,182,100,52,313,459,279,312,332,40,113,192,274,308,164,364,144,99,234,114,42,135,102,775,4827,1097,2055,2500,768,590,1000,2394,2903,4779,1361,1401,1261,2517,821,1271,206,1064,1359],[69,69,0,79,62,82,64,37,0,78,45,62,69,75,49,21,38,61,28,68,15,10,46,90,77,42,22,81,42,61,107,61,83,24,45,54,85,97,91,55,307,313,348,381,401,425,208,116,186,230,355,229,374,123,312,337,381,321,251,389,123,376,401,284,339,471,115,130,320,396,313,145,437,196,373,305,271,97,436,326,2567,2717,4103,3246,2995,1892,1051,3331,3469,3032,4306,3676,1401,4944,3942,3188,4494,206,3458,2733],[43,66,49,0,47,54,77,57,0,65,45,62,81,74,82,43,41,53,14,41,40,11,70,84,48,22,72,86,56,54,101,63,78,68,20,61,27,84,90,53,261,436,402,373,114,289,94,256,73,369,373,251,232,66,297,368,223,339,73,384,116,393,353,291,350,404,123,182,282,103,319,125,423,64,99,367,299,108,427,340,989,4068,4149,3091,1857,810,767,3690,2546,4367,3792,5097,3050,4055,3567,3093,4793,678,4184,5255],[57,77,57,74,0,25,60,16,0,71,47,70,26,67,63,21,34,19,41,77,46,11,57,61,67,55,22,106,33,69,56,62,53,62,58,43,94,52,89,60,254,319,335,362,298,402,272,194,73,270,363,294,403,33,112,106,340,378,251,258,180,103,396,279,353,457,40,132,221,314,275,98,281,180,319,346,234,137,325,209,775,4464,2910,2150,1665,2123,738,2089,2497,2416,5160,4681,1401,4678,3362,3156,1271,206,3697,3986],[18,29,49,73,22,0,56,16,0,20,57,55,26,84,100,71,43,67,14,22,15,4,42,79,54,20,59,107,47,22,28,63,59,35,20,37,89,25,58,17,324,333,104,235,114,109,262,267,73,224,119,312,118,33,292,106,196,172,103,366,52,292,170,421,332,212,152,50,251,275,264,42,150,132,99,306,164,42,365,336,1305,2444,1097,1185,797,768,395,1000,1075,1195,2008,2984,4352,3963,3608,821,2644,507,1064,1359],[18,29,37,75,62,25,0,32,0,49,44,105,81,66,87,77,41,71,14,74,53,4,69,78,22,39,76,108,19,83,76,39,81,65,20,21,92,94,90,17,295,151,225,314,114,433,219,182,273,175,407,114,139,125,369,367,362,227,259,318,114,406,278,116,278,305,40,118,309,399,115,105,427,197,318,352,255,104,300,312,2811,2552,1097,3645,1047,768,1414,2284,3396,4613,4465,3794,1776,2763,5091,3033,1448,537,3526,2730],[18,29,59,59,22,25,39,0,0,20,38,75,26,68,84,78,42,62,14,22,15,4,39,82,82,20,54,81,41,22,28,61,91,57,20,53,99,25,60,17,384,442,104,282,114,109,272,296,73,164,119,423,106,33,254,193,228,190,121,351,52,183,209,342,357,137,119,50,265,228,370,42,145,116,99,280,161,42,360,260,1236,3084,1097,1185,797,906,395,1000,1075,1195,2770,5161,4402,2536,2535,821,5000,460,1064,1359],[18,29,39,25,22,25,27,16,0,20,15,54,26,25,29,21,12,35,14,39,35,4,19,70,22,20,22,28,19,22,54,37,67,24,20,39,27,25,29,17,113,119,104,119,388,259,94,176,73,102,240,294,106,33,317,312,345,113,73,295,52,194,316,116,252,259,40,50,299,148,430,42,373,64,387,204,201,42,111,296,2237,1276,2117,4146,797,768,1336,1000,3891,1195,2804,1419,1401,1261,1310,2949,1271,206,1064,1359],[50,29,64,57,87,77,79,63,0,0,55,63,78,53,28,21,35,42,48,58,59,4,51,86,49,20,22,72,37,76,65,77,42,89,74,61,60,63,95,43,246,416,260,467,347,395,274,342,73,102,323,312,149,103,404,320,190,319,253,375,203,313,292,455,107,118,146,191,339,356,334,140,306,208,284,119,277,111,356,223,775,1276,3011,3409,1110,2762,753,3790,2186,4449,3714,1361,4410,3116,5184,3022,3820,206,3139,3293],[47,29,58,99,41,73,59,52,0,40,0,96,70,70,56,67,44,45,48,48,46,4,46,95,65,42,67,83,38,67,68,60,64,60,50,71,90,55,68,38,301,452,241,348,436,354,333,371,217,171,369,300,106,76,295,408,394,172,220,253,52,349,300,331,364,243,81,50,339,309,412,127,248,175,351,326,223,42,353,347,2508,2083,2516,4334,1506,2508,889,1000,3221,3108,4131,4609,2878,3626,1310,2564,3126,687,1064,1359],[30,89,52,77,67,68,50,45,0,28,47,0,60,25,106,21,33,60,14,68,58,14,69,82,63,20,84,71,48,22,71,91,68,62,27,30,70,25,74,39,297,328,239,308,381,319,265,441,254,381,357,271,310,33,335,299,393,328,185,310,111,237,393,261,368,446,89,50,231,402,270,116,366,207,256,393,304,148,111,311,2297,4493,4292,3297,797,768,965,2603,2449,1195,5130,3085,3177,4435,3553,2459,2884,782,2683,5331],[58,29,56,80,22,25,77,38,0,63,52,35,0,70,111,78,37,19,55,77,57,4,56,79,22,60,87,107,18,87,84,52,80,56,73,64,96,78,97,34,358,413,274,376,316,386,231,185,73,138,269,449,149,33,112,106,249,354,276,327,160,103,244,225,393,268,40,165,292,266,215,116,457,240,206,395,337,157,414,172,1167,2542,2799,2771,1344,1799,679,2260,3145,4353,4964,4831,2800,3108,4216,1994,1271,496,4235,3717],[18,29,42,62,59,25,65,44,0,29,33,27,70,0,94,21,40,38,14,74,25,4,52,26,22,20,83,86,16,22,28,26,74,24,20,21,56,25,89,17,335,143,198,251,114,133,158,116,73,248,237,422,193,33,265,114,257,436,119,299,155,139,270,116,298,432,40,50,256,335,215,42,365,198,99,329,259,128,111,158,1422,3022,2708,1185,797,768,395,3115,1075,1195,3506,4194,2098,2286,3062,2693,1915,729,3296,4913],[50,101,49,81,73,25,50,48,0,21,32,84,71,71,0,81,35,75,14,41,44,8,19,86,69,20,53,104,26,22,72,70,73,50,20,30,92,25,93,67,113,223,333,378,425,215,186,228,253,209,370,372,263,33,307,260,102,360,141,348,52,233,438,116,233,313,40,50,254,383,366,42,116,181,201,279,247,154,320,251,3068,3482,3750,4087,2749,768,826,3446,2717,1195,5136,3211,2744,3727,4529,2826,1271,622,3944,3955],[18,29,18,46,22,25,56,50,0,20,56,27,26,25,61,0,43,50,14,22,15,4,57,26,22,20,63,56,16,22,28,26,70,24,20,21,74,25,87,17,348,119,104,298,114,109,151,116,73,246,239,451,106,33,233,106,182,165,73,184,52,219,188,116,299,174,40,50,292,103,250,42,116,64,99,300,192,42,111,102,1927,2292,1097,1185,797,768,395,1000,1075,1195,1393,4153,3017,3416,2435,821,1606,497,1064,1359],[50,29,53,95,45,25,63,51,0,67,54,70,67,64,101,75,0,45,35,76,38,4,62,80,22,64,72,105,16,55,108,49,86,62,68,76,98,92,100,37,292,328,271,382,445,327,325,141,286,186,429,286,232,92,282,412,315,351,290,317,144,313,293,286,320,263,40,176,321,309,361,87,340,152,236,456,305,165,393,212,2328,1919,3124,3381,1336,1878,908,3893,2496,3474,4524,5321,3039,2566,2723,2660,2339,530,1064,2973],[43,70,54,65,22,25,75,38,0,41,45,69,26,80,75,74,41,0,14,57,52,12,53,59,42,31,85,90,25,64,86,63,80,68,27,74,75,52,94,57,392,195,393,405,364,267,197,195,178,329,385,436,287,33,112,106,300,298,255,306,124,103,285,217,410,364,40,199,334,316,375,144,320,217,319,277,333,110,393,228,1651,3136,2251,4170,2949,899,854,3513,2710,4557,3954,4154,2842,2892,4937,2270,1271,622,3974,5374],[58,29,18,25,22,25,35,42,0,20,55,56,26,55,100,78,30,41,0,67,58,4,52,26,22,78,83,59,16,22,45,49,87,24,78,21,27,25,68,35,390,345,263,351,389,109,94,116,73,192,243,367,106,33,355,106,197,166,73,330,52,166,257,290,424,194,40,50,200,103,263,42,202,64,302,289,251,42,370,102,1598,2111,3281,1185,797,2598,395,1000,3374,1195,2904,4456,2706,3940,2521,821,1827,793,1064,1359],[53,88,36,63,83,25,47,16,0,79,37,99,95,61,44,21,30,63,54,0,49,11,49,71,53,61,22,81,25,22,79,64,72,55,77,52,80,70,106,66,339,407,375,329,262,109,293,288,200,239,119,264,332,108,358,308,395,446,235,318,131,261,459,250,328,461,40,171,222,303,381,147,412,202,297,308,236,130,424,164,1557,2843,3666,3281,1990,2351,886,3246,2738,3424,3434,3412,1401,3390,4583,1907,1271,206,3000,1359],[60,111,18,60,62,80,73,53,0,59,55,76,90,82,74,63,47,68,37,54,0,9,45,99,70,71,49,102,62,50,60,80,62,24,63,46,92,73,82,59,357,408,292,405,430,396,321,116,167,397,421,368,284,79,407,272,361,281,215,303,200,411,417,333,410,455,88,126,307,296,362,139,356,252,294,345,268,98,313,355,2034,3536,4152,3009,2524,2361,935,2227,3222,2803,4153,5005,1401,4118,4897,3000,4939,457,2874,4676],[45,99,18,65,34,25,20,16,0,20,15,60,26,25,40,21,12,53,14,22,29,0,19,26,65,20,22,53,16,22,28,76,49,45,20,21,48,25,27,67,274,119,399,267,114,109,197,277,73,102,139,239,318,33,112,106,145,113,177,100,52,103,368,116,190,200,40,50,225,271,334,76,343,219,99,226,154,42,197,102,775,3470,1097,1185,2047,768,395,1000,1075,1195,5004,1361,1401,3988,2238,821,1271,206,1064,1359],[65,79,60,66,61,55,69,47,0,71,49,78,92,59,28,75,31,59,30,70,57,15,0,103,72,70,68,93,58,80,84,81,82,67,61,52,83,72,103,36,113,466,329,456,405,409,358,288,287,334,407,321,246,130,421,275,102,418,215,363,52,303,394,318,418,435,119,119,294,260,373,42,116,189,318,381,288,150,335,248,2221,3714,3203,3386,1673,1864,989,3603,3415,3284,5410,4788,4572,4270,4109,2450,4563,688,3519,2858],[37,103,71,95,51,75,78,46,0,56,42,79,64,25,51,21,31,33,14,39,52,9,44,0,66,32,22,108,46,66,68,92,46,88,20,73,95,91,27,54,201,335,364,337,312,400,169,343,226,406,460,249,106,123,413,418,278,113,245,254,52,332,397,377,271,250,145,155,93,342,394,138,328,153,382,283,185,42,207,368,2515,5020,1301,3592,1820,768,1472,1000,3313,3912,5050,1414,4681,4697,2462,1661,3386,206,1064,1359],[27,90,50,72,22,54,20,38,0,20,29,87,26,25,71,21,12,63,14,22,20,11,39,55,0,20,22,56,16,22,28,66,42,49,20,33,63,25,59,44,235,331,281,304,114,109,191,308,73,297,134,287,370,33,245,153,252,113,211,283,52,247,436,311,276,355,114,50,319,236,358,132,354,141,99,255,208,42,346,377,775,2755,1097,1195,2694,768,395,1000,1075,1195,3736,1361,2962,2859,4022,821,3159,206,1064,1359],[46,90,43,75,49,25,52,16,0,20,41,71,60,25,55,21,35,50,54,49,55,9,45,59,70,0,22,83,23,66,65,97,58,89,71,77,89,93,63,61,245,387,338,404,440,401,235,195,254,255,336,248,331,78,274,298,275,113,208,178,52,213,396,224,107,118,40,144,308,268,369,131,322,167,287,119,254,42,111,265,2429,3332,2610,2905,3159,2754,1021,1000,3946,2526,4366,1361,1401,4812,1937,2825,1271,206,1064,1359],[18,29,18,73,22,25,50,49,0,20,51,32,26,68,109,54,26,51,14,22,15,4,61,26,22,20,0,72,16,22,28,26,52,24,20,21,78,25,87,17,296,119,104,314,114,109,173,116,73,145,243,331,106,33,187,106,160,113,73,233,52,170,183,116,267,150,40,50,233,103,242,42,116,64,99,341,251,42,296,102,1576,2279,1097,1185,797,768,395,1000,1075,1195,1393,3936,3130,1261,2069,821,1995,562,1064,1359],[42,112,53,89,72,94,63,43,0,45,54,100,78,98,69,42,29,49,38,68,52,11,66,88,65,71,67,0,40,47,68,56,74,94,76,53,95,54,91,52,338,470,104,119,333,313,262,353,73,330,424,244,328,118,321,312,286,113,217,230,205,255,398,243,265,260,129,169,346,364,400,138,340,205,278,369,321,108,402,264,2376,3574,3719,3341,1846,1778,996,2356,3415,4075,4763,4537,2885,3620,3179,3046,4815,635,4089,4340],[42,29,71,68,37,80,66,49,0,40,58,78,61,50,108,64,12,51,46,55,57,4,53,85,22,59,50,101,0,44,61,45,78,62,56,83,94,75,69,42,409,372,343,426,375,268,249,409,276,231,345,428,106,73,372,336,232,183,261,323,52,234,327,341,393,263,156,191,272,303,363,126,392,150,246,297,261,42,339,354,2006,2752,3046,3726,964,2629,941,1000,2814,4461,3890,5150,3100,3033,4366,2908,2705,584,1064,1359],[66,29,31,87,57,25,69,16,0,59,50,27,84,25,28,21,24,23,31,22,59,4,46,78,22,50,22,91,31,0,57,52,23,55,71,49,71,95,96,44,215,415,238,328,348,109,236,116,73,102,119,146,106,78,379,354,181,176,164,100,52,344,320,290,289,118,40,184,241,212,326,111,284,64,207,327,240,42,111,102,775,1283,1813,3238,972,1935,554,1000,3448,3120,4352,5157,1401,2596,1310,821,1271,206,1064,1359],[69,29,54,73,43,25,42,44,0,47,47,55,52,65,58,52,29,40,49,75,58,4,38,95,22,67,62,76,33,70,0,36,88,82,42,49,93,61,92,63,392,119,344,300,355,226,231,176,213,102,399,255,106,89,260,312,322,164,162,247,52,265,254,272,346,228,40,138,340,223,446,164,419,64,269,392,315,42,214,296,3001,2304,2184,3582,1280,1694,1162,1000,3523,4748,3429,4465,2391,4359,2552,2972,2316,812,1064,1359],[59,29,71,89,22,62,39,39,0,20,34,103,44,25,52,21,12,54,46,61,58,10,25,100,79,40,22,57,53,22,69,0,67,48,69,55,79,25,81,48,306,376,268,384,355,176,374,420,212,251,418,281,415,33,386,213,277,176,136,310,52,254,400,445,357,371,121,50,303,295,418,71,275,221,229,276,283,42,246,287,1894,2583,2699,2709,1960,3025,1432,1000,2999,1195,4506,2972,3489,1261,4174,1610,4682,206,1064,1359],[54,99,66,79,52,60,62,58,0,63,55,106,70,86,76,63,38,58,53,55,45,12,67,90,85,65,62,92,55,59,90,82,0,90,76,74,98,68,93,17,403,370,285,381,427,330,290,305,240,209,350,448,252,72,430,381,355,266,231,283,117,348,261,373,393,343,117,196,314,296,390,122,456,214,339,278,273,150,406,402,775,4597,2784,1185,1746,768,964,3620,3214,4663,5495,5375,5549,3430,4419,2905,3943,769,2530,2967],[41,87,18,73,31,91,52,54,0,75,44,71,62,25,38,21,23,50,14,33,15,8,40,90,65,27,22,94,55,53,56,76,57,0,20,71,82,53,104,49,255,452,414,349,114,378,268,116,73,356,318,258,414,109,247,321,176,113,282,349,52,289,353,253,364,276,130,180,304,271,222,163,296,177,99,250,180,42,283,212,775,3432,1097,2523,1633,768,611,1000,1959,3220,3379,1361,1401,3803,3771,821,3348,206,1064,1359],[65,29,54,99,48,25,59,50,0,69,47,58,93,70,102,58,41,46,28,76,54,4,55,26,22,75,87,97,27,84,87,50,89,69,0,77,91,93,27,34,296,358,295,443,309,248,223,161,270,147,334,276,106,122,413,250,319,446,234,392,144,256,359,285,289,269,40,154,93,345,424,155,363,189,313,306,308,164,376,222,1856,1710,4057,3844,1382,2574,1010,3247,3247,4251,3581,4591,2942,3060,4452,2559,2033,541,2648,3806],[57,29,65,66,40,68,20,52,0,58,51,91,83,58,108,55,29,56,41,69,47,4,54,87,50,58,76,100,38,44,94,65,79,94,62,0,95,90,90,36,361,348,358,319,114,265,282,257,190,233,451,114,106,82,391,314,267,167,278,322,52,353,342,116,404,253,40,133,354,350,115,167,430,146,394,355,276,42,319,288,1857,2494,1097,3661,1203,2618,1071,1000,3790,4675,3979,4678,3880,4181,2877,2745,4170,481,1064,1359],[71,92,45,25,47,25,77,34,0,68,49,75,57,72,77,57,43,60,14,66,50,13,50,91,56,43,47,87,22,72,84,63,63,61,44,71,0,86,89,60,321,328,387,423,406,342,94,199,280,340,336,287,360,109,386,271,270,157,73,238,52,272,270,304,426,287,40,186,299,103,325,136,309,64,350,307,267,42,215,298,2431,2812,2571,4078,2068,2786,1379,1000,2823,2621,4184,5132,1692,3820,1814,2448,2128,723,1064,1359],[52,29,53,82,68,25,63,16,0,43,52,86,89,64,42,21,23,42,43,61,53,4,42,96,22,53,22,102,19,82,111,36,83,66,50,59,107,0,86,60,260,305,270,396,383,270,230,186,172,107,407,191,247,90,377,402,284,342,269,100,163,325,116,262,364,439,40,147,344,411,385,167,259,163,290,268,339,42,403,102,2925,1276,3082,3591,1110,1715,1117,1000,3175,3513,1393,3271,1401,3680,3271,821,1271,206,2943,3415],[47,29,62,86,45,81,71,46,0,40,52,78,102,87,71,57,35,73,34,81,54,4,68,26,66,50,51,97,32,46,77,53,78,80,20,55,91,95,0,63,377,439,210,404,315,299,264,447,253,228,396,293,106,78,389,300,315,422,234,253,133,229,289,388,356,355,91,131,93,392,297,167,308,182,366,342,211,88,355,386,1936,2531,3380,3428,1335,2315,1470,2564,2976,4037,5246,3074,4197,4848,4844,3114,4260,697,2874,3643],[56,76,49,87,30,25,45,16,0,20,46,97,36,25,74,21,12,40,32,72,51,12,19,84,59,56,22,71,26,22,43,63,23,37,44,38,87,27,43,0,293,365,224,293,383,231,209,310,153,310,310,243,284,33,446,288,225,191,210,299,52,156,287,333,329,386,40,50,202,180,326,109,296,170,307,266,278,42,112,319,775,5078,2958,1185,2993,768,1228,1000,3417,1195,4517,4506,1401,4135,1559,2094,1271,206,1064,1359],[53,83,66,59,24,73,42,54,0,20,48,87,45,72,28,73,30,63,40,74,55,8,19,80,76,70,65,85,35,22,48,81,58,49,52,40,104,25,87,54,0,423,345,403,401,314,303,304,159,406,308,253,255,33,381,198,102,178,211,234,52,250,315,305,273,389,147,50,337,275,280,42,116,209,346,410,256,42,320,386,2251,4298,3344,4354,2267,1977,1066,1000,4007,1195,4241,4414,3326,4394,3287,1736,4385,545,1064,1359],[55,105,69,91,87,62,54,46,0,24,33,50,93,74,51,21,12,54,42,85,47,4,73,61,84,66,22,76,39,22,28,75,58,51,59,38,94,25,67,46,415,0,209,348,406,180,275,396,73,102,306,233,337,33,340,128,201,244,221,369,126,261,321,331,345,347,87,50,225,250,267,81,249,216,317,297,263,156,440,316,775,5066,3563,1185,2180,2248,395,3568,1968,1195,5290,3528,3125,3011,3864,1688,4957,206,3275,3244],[46,75,33,73,84,25,66,16,0,25,33,105,59,66,48,21,12,60,30,65,54,8,45,49,75,41,22,28,23,22,69,98,57,46,68,37,54,25,56,58,331,405,0,119,414,317,202,375,73,254,349,277,358,33,383,277,333,113,147,216,106,253,297,180,359,317,40,50,230,398,339,125,337,221,313,331,244,164,425,242,2258,3684,2687,2648,2851,2190,1438,3209,3185,1195,4981,4646,1401,2969,4735,2810,1271,206,2744,5373],[49,105,55,89,74,89,66,34,0,59,36,77,88,81,94,71,39,67,37,76,41,13,72,92,70,73,50,28,32,74,105,97,79,72,79,76,92,88,100,57,346,430,104,0,380,424,249,462,73,323,357,269,235,119,419,352,310,113,225,354,172,320,336,365,368,352,93,151,343,378,340,139,403,183,337,359,333,86,334,336,1917,2710,3281,2695,2278,2119,1406,2963,4220,3165,4802,3504,4432,4379,2740,2965,3531,522,2539,4872],[60,29,47,25,22,25,20,16,0,20,41,63,40,25,45,21,12,22,47,66,54,4,31,52,22,72,22,52,16,22,51,57,50,24,41,21,94,25,75,48,320,325,284,229,0,270,202,116,261,103,330,114,106,33,367,313,274,113,73,303,52,158,234,116,297,257,40,50,263,146,115,42,244,64,389,249,199,42,111,292,2377,1276,1097,4526,797,2751,1105,1000,3075,1195,4260,4296,1401,3334,1460,1617,1271,206,1064,1359],[18,29,51,94,55,25,64,16,0,74,30,72,76,76,39,21,38,38,14,22,42,4,48,74,22,27,22,76,30,22,97,33,53,79,25,62,89,52,63,17,113,119,225,362,395,0,203,165,249,102,119,230,181,79,298,294,363,333,222,341,106,216,297,140,289,283,40,130,331,405,391,124,257,150,200,271,237,112,355,317,1896,1276,2591,4103,1208,768,1446,2957,3159,3761,5571,1729,1401,2052,3971,2977,1271,206,3240,1359],[46,80,47,25,78,75,63,59,0,41,42,63,54,92,83,81,30,66,14,74,40,12,49,87,84,44,57,96,32,64,86,97,86,82,78,72,27,76,96,66,389,357,410,391,264,355,0,433,73,354,337,391,319,91,428,359,358,429,73,320,199,286,359,336,425,378,92,101,312,103,364,139,350,64,268,308,325,156,325,402,1642,2994,3092,3149,2761,1849,885,3765,2468,3349,3626,4443,3507,4566,3318,1675,3639,423,2490,4957],[37,94,18,85,59,94,57,56,0,72,47,66,71,85,74,72,44,44,14,38,15,13,51,86,54,30,47,96,57,67,77,78,80,24,24,68,71,54,107,42,352,378,358,336,276,379,278,0,274,352,400,306,413,106,422,300,302,113,239,315,52,291,441,240,293,253,140,172,298,277,323,128,356,210,203,301,333,42,238,300,1916,3072,1400,4248,1804,768,1431,1000,4297,4240,3775,3792,1401,3125,3779,2906,3884,670,1064,1359],[18,29,51,25,22,25,28,16,0,20,15,71,26,25,46,21,12,30,14,44,55,4,19,56,22,20,22,28,22,22,68,26,75,24,21,29,27,25,28,17,113,119,104,119,305,235,94,124,0,132,371,165,106,33,282,254,278,113,73,166,52,249,411,116,350,179,40,50,302,200,390,42,336,64,303,154,312,42,111,188,1943,1276,2247,2372,797,768,1556,1000,2475,1195,3533,1515,1401,1261,1310,2049,1271,206,1064,1359],[27,105,49,62,29,25,33,26,0,20,53,65,26,80,108,42,36,62,14,33,52,4,50,57,57,20,78,69,24,22,28,72,78,37,27,35,90,25,52,52,439,119,291,322,358,302,131,216,255,0,270,380,212,33,390,289,384,146,134,298,52,210,302,116,328,240,40,50,302,192,441,135,356,202,334,309,262,42,355,203,2132,3950,1973,2391,3160,768,793,1000,3977,1195,5048,2872,2162,3910,2772,1602,1755,717,1064,1359],[43,90,56,81,51,25,65,16,0,76,48,75,93,75,74,64,26,64,36,22,50,10,58,68,76,71,78,106,44,22,109,73,83,65,69,59,92,60,94,56,326,349,355,448,287,109,323,274,263,273,0,374,288,87,329,387,338,431,266,320,188,308,352,419,357,384,88,164,315,341,388,116,376,150,300,374,314,139,403,386,2722,3090,2763,3775,1642,1734,1047,2347,2990,4001,5092,4273,5209,4540,4256,2300,2960,582,4114,1359],[39,62,62,91,56,62,20,47,0,52,52,82,102,62,87,53,41,61,52,81,54,12,75,102,70,59,49,77,44,81,73,98,88,56,59,21,79,72,103,57,404,429,404,329,114,400,257,368,263,343,462,0,227,92,407,281,277,399,266,336,195,257,409,116,383,313,40,159,339,322,115,111,388,238,317,472,289,131,371,303,1795,5096,1097,3371,2605,3012,1087,2171,3985,4121,5091,4658,3320,3855,4520,3175,2680,479,2435,3928],[41,103,57,50,84,70,41,42,0,22,43,64,57,87,72,21,12,63,14,59,42,15,43,26,74,20,22,66,48,22,28,91,61,62,20,49,64,25,27,63,174,442,402,394,114,176,219,460,73,351,400,303,0,33,257,128,254,261,205,244,179,167,387,392,318,382,113,50,93,238,231,92,304,214,99,295,197,166,322,362,775,3256,2634,1185,2481,768,395,3299,1176,1195,3740,1361,4416,3081,3668,1942,3532,206,3279,3765],[18,29,55,68,22,25,51,16,0,45,39,27,26,25,28,21,26,19,14,34,50,4,29,84,22,29,22,106,18,80,105,26,30,68,20,45,53,68,97,17,113,119,104,451,114,428,153,141,73,102,349,114,106,0,112,106,168,113,146,100,52,103,264,182,359,118,40,197,239,235,115,155,204,64,99,227,116,42,111,102,775,1276,1097,3503,919,768,569,1000,2087,2456,3747,1361,1401,1261,1310,821,1271,206,1064,1359],[63,29,58,87,22,82,77,51,0,60,54,83,26,84,106,67,39,19,53,60,48,4,66,95,48,61,67,102,48,47,101,62,84,76,72,54,89,78,100,35,417,450,392,336,441,310,357,248,245,207,467,379,207,33,0,106,345,446,168,343,203,103,312,365,339,324,98,137,338,400,348,123,419,168,394,345,292,89,385,382,1674,2796,3625,3933,1338,2239,1527,2838,3140,3402,5521,4698,4423,3753,5208,2860,1271,615,3411,3653],[18,29,46,86,22,76,62,51,0,77,31,80,26,77,35,21,31,19,14,68,57,4,62,97,50,27,22,92,63,77,109,71,78,92,22,42,91,82,76,17,148,430,236,321,315,265,166,306,253,102,473,294,189,33,112,0,324,317,179,355,174,103,312,333,297,308,103,111,308,330,247,118,357,135,218,258,301,133,283,337,2178,1276,3825,3550,1320,768,985,2622,4226,4295,4068,2091,4566,2161,3022,2293,1271,206,3606,3148],[63,87,67,74,85,93,69,60,0,44,45,73,96,73,28,56,35,52,46,64,59,15,19,73,81,74,79,94,55,84,70,72,70,77,79,80,107,81,99,59,113,329,223,382,352,345,363,369,251,376,366,406,371,100,445,370,0,411,216,384,52,286,365,345,350,459,107,144,302,401,367,42,116,211,284,333,327,123,437,370,1794,4149,2354,4627,2564,2545,1325,2685,2831,2904,4698,5133,3202,4306,3984,2500,3100,775,2538,3112],[53,29,33,70,50,25,38,39,0,20,36,52,76,85,80,67,27,40,31,50,59,4,53,26,22,54,70,28,16,22,38,38,81,24,59,21,87,25,80,41,300,377,104,119,373,144,298,116,73,174,250,293,222,33,277,122,292,0,179,231,157,185,267,214,311,415,40,50,199,331,275,42,313,147,265,346,330,89,258,110,1418,2377,3199,1185,797,2234,395,3379,3269,1195,3881,3998,2657,4080,2928,1954,1811,618,3246,2719],[30,67,62,25,53,94,70,56,0,79,28,67,100,52,45,21,23,51,14,54,34,10,72,85,78,25,22,109,40,52,75,76,56,75,20,65,27,96,87,48,287,338,311,458,114,306,94,278,73,310,366,323,322,74,355,376,291,402,0,208,149,399,258,337,308,448,105,108,295,103,254,142,378,64,99,327,330,140,344,204,775,2706,3717,2896,2904,768,929,3370,2778,4426,5129,1361,3957,4531,4723,2767,3268,206,2872,3523],[18,29,53,75,78,97,63,45,0,32,40,94,58,78,75,64,39,62,14,40,53,4,56,57,57,20,57,88,36,22,54,50,80,50,21,42,77,25,81,17,368,330,266,352,382,272,205,290,217,166,336,291,153,33,382,288,318,436,168,0,197,212,116,367,350,421,90,50,205,347,459,42,296,244,344,335,253,42,357,102,1937,3166,4212,4612,797,768,1291,1000,2930,1195,1393,4857,5361,4096,5027,821,4128,624,2431,4801],[18,29,34,39,63,25,69,16,0,31,15,55,89,72,28,21,12,60,14,74,33,4,19,26,22,20,22,56,16,22,28,26,47,24,20,21,27,25,50,17,113,156,141,310,114,151,146,116,73,102,267,194,194,33,147,106,102,365,161,295,0,103,155,116,107,265,40,50,93,267,115,42,116,154,99,352,226,92,358,124,775,1276,3853,1185,797,768,395,2161,1075,1195,3236,1361,1401,1800,3995,1950,1271,206,2836,3168],[18,29,53,65,22,84,55,33,0,47,43,81,26,84,106,74,45,19,14,39,44,4,42,89,50,35,47,79,54,53,95,78,67,52,20,73,87,68,80,17,438,343,215,331,343,284,218,389,287,163,352,259,111,33,112,106,274,202,235,368,52,0,244,309,232,204,132,169,346,285,313,95,389,181,358,275,333,42,258,256,2052,2133,1367,4486,897,768,950,1000,2838,2519,3332,2789,5493,2804,3237,2022,1271,440,1064,1359],[48,97,51,84,83,77,58,40,0,77,50,85,65,98,101,48,38,41,42,73,57,15,42,98,68,58,80,105,39,55,104,83,82,87,56,70,101,25,87,53,369,399,325,392,354,244,237,409,187,244,346,439,262,127,385,286,281,434,277,100,160,275,0,355,362,250,93,124,265,246,397,122,325,241,307,426,254,42,372,102,2437,3853,2784,4017,1662,2201,1183,1000,2780,4360,1393,4028,3477,2701,3849,821,3150,780,3810,4203],[65,29,70,51,41,97,20,46,0,61,55,52,85,25,28,21,20,21,29,59,51,4,45,100,60,48,22,77,40,52,75,52,32,50,70,21,90,71,100,54,243,419,168,313,114,382,269,337,73,102,475,114,120,98,428,319,230,133,148,271,52,300,304,0,341,118,40,131,255,347,115,99,189,221,341,281,199,42,204,389,775,1276,1097,2920,847,1999,1048,1000,2403,3031,3937,3762,4936,3171,4299,821,3751,206,1064,1359],[59,82,54,71,59,98,55,52,0,20,54,57,54,44,63,62,38,65,50,69,46,12,47,101,69,20,56,87,61,60,64,102,55,60,53,42,80,64,100,51,370,320,371,459,431,235,360,423,157,262,425,330,315,69,408,270,285,167,219,353,52,259,407,329,0,118,147,120,307,342,417,92,374,183,338,119,219,42,376,244,1767,5099,2695,3173,2709,2057,1434,1000,3495,4737,3918,1361,5405,4782,2474,2571,3385,732,1064,1359],[58,67,43,68,64,80,54,52,0,20,46,92,80,55,99,83,32,74,39,65,52,12,63,81,63,20,83,98,55,22,74,72,83,62,78,36,70,26,99,66,395,380,255,317,318,222,232,446,169,255,332,314,229,33,407,203,345,448,158,350,126,241,312,303,107,0,94,50,287,259,387,99,320,246,243,119,339,101,415,302,2081,3306,4147,3096,2382,1784,1326,3731,4052,1195,5296,1361,3153,4104,4102,2146,4247,787,2485,4058],[18,29,51,25,22,51,20,37,0,20,38,73,26,25,28,21,12,19,14,22,15,4,31,72,73,20,22,46,40,22,28,65,23,54,20,21,27,25,34,17,113,241,104,218,114,109,224,382,73,102,145,114,107,33,374,191,156,113,134,237,52,183,169,116,378,118,0,50,93,161,115,42,141,133,99,162,91,42,231,329,775,1276,1097,1185,797,768,395,1000,1075,1195,1643,1361,4200,1261,3177,821,2740,206,1064,1359],[18,29,32,70,32,25,76,16,0,78,15,27,91,25,28,21,35,23,14,23,49,4,42,90,22,31,22,80,21,59,56,26,34,94,20,58,66,87,56,17,113,119,104,440,114,344,185,116,73,102,399,119,106,120,146,298,241,113,158,100,52,339,244,242,286,118,40,0,277,309,115,129,321,64,99,210,86,42,111,102,775,1276,1097,3483,984,768,849,1000,3094,3341,2201,1361,1401,1261,1310,821,1271,206,1064,1359],[62,75,54,89,58,25,46,51,0,44,42,70,81,75,98,83,38,70,48,74,53,14,55,26,69,69,70,107,35,50,101,57,86,74,20,58,74,76,27,57,433,375,386,295,402,375,235,226,198,236,405,281,106,89,359,301,351,169,182,242,52,247,328,192,344,285,40,157,0,320,287,113,386,215,338,400,251,42,333,274,2329,3955,2874,2955,2169,2542,855,1000,3344,2556,4925,4190,1644,4108,1840,3060,1527,617,1064,1359],[60,102,58,25,75,50,71,49,0,75,54,91,86,65,68,62,28,69,14,72,55,9,57,102,72,50,71,103,39,52,65,71,87,85,57,79,27,56,81,51,266,387,325,416,388,328,94,339,194,271,239,281,416,70,303,326,316,371,73,277,127,309,461,343,374,365,140,136,300,0,350,119,413,64,329,359,307,156,364,271,2892,3214,2806,4329,3046,1756,1396,3360,3118,4071,4655,4076,4712,4945,4058,2882,2832,484,3910,2956],[44,61,43,65,22,25,20,33,0,20,53,86,34,80,108,49,35,47,45,57,55,13,48,68,47,46,65,104,27,22,46,78,62,38,40,21,74,25,60,61,432,277,270,314,114,256,259,271,180,325,441,114,415,33,384,188,330,168,165,244,52,243,311,116,368,233,40,50,296,266,0,97,391,199,372,428,224,42,360,273,1573,2813,1097,3301,3099,3023,847,1000,3135,1195,3425,4398,1902,3287,1925,2759,1692,577,1064,1359],[46,62,40,68,37,25,61,16,0,44,45,62,50,25,28,21,20,58,14,33,43,13,19,98,46,33,22,80,26,54,109,69,57,88,20,46,78,80,67,62,113,294,234,390,114,348,148,296,73,358,283,285,395,131,230,331,102,113,169,100,52,274,297,145,385,391,40,180,320,286,273,0,116,216,99,279,164,42,111,102,775,2733,1097,2686,3150,768,792,1000,1842,3030,3872,1361,1401,4407,2353,821,1271,206,1064,1359],[47,67,55,89,45,54,67,48,0,48,45,75,74,77,28,21,22,53,39,72,57,10,19,87,84,62,22,111,40,74,74,65,58,80,79,60,95,91,89,66,113,399,300,455,336,378,320,255,152,388,308,253,250,108,393,222,102,354,229,270,52,332,311,448,352,283,145,144,359,315,384,42,0,202,392,341,303,164,317,343,1647,3940,2618,4115,3003,2244,1112,2511,2249,3525,3706,2821,5030,4564,3940,3096,4004,206,2519,3956],[28,71,69,25,76,82,38,49,0,27,29,47,100,83,59,21,12,62,14,72,42,13,54,83,75,20,22,82,32,22,28,87,56,57,20,49,27,25,63,38,231,343,330,261,114,115,94,314,73,311,350,310,367,33,349,192,235,377,73,312,128,189,322,242,320,401,141,50,314,103,191,103,340,0,99,329,213,146,396,384,775,2914,2258,1185,1919,768,395,3987,1268,1195,3254,1361,3005,3944,3760,3163,3137,206,3133,2751],[36,29,41,25,22,25,24,16,0,20,50,70,38,25,30,21,12,35,37,67,58,4,23,56,22,79,22,44,25,22,71,45,56,24,45,36,102,27,52,47,330,326,309,359,446,269,282,186,211,102,388,215,106,33,287,247,369,171,73,306,52,182,326,302,225,180,40,50,235,200,402,42,424,64,0,224,320,42,111,258,2230,1276,2122,2906,797,1981,395,1000,1075,1195,4572,3989,1401,2864,1310,2242,1271,206,1064,1359],[65,88,59,60,64,98,66,51,0,20,54,83,62,66,107,74,46,65,37,71,55,9,62,81,87,20,48,83,46,60,78,80,69,48,48,67,88,93,102,54,367,313,328,366,336,289,246,427,248,346,471,302,251,106,334,247,337,288,239,327,117,284,314,375,107,118,147,154,343,311,348,98,345,222,251,0,321,84,294,232,1632,4360,3402,3003,2177,2938,1526,3964,2872,2908,5274,1361,3854,3298,3988,2542,3037,793,3295,3723],[18,88,57,72,72,61,65,44,0,64,44,105,97,58,92,43,31,49,53,74,37,8,63,83,61,77,48,103,45,59,69,76,89,55,76,62,77,80,97,42,358,300,388,358,414,267,216,259,247,385,375,409,327,113,401,415,389,385,234,292,104,361,366,377,371,346,104,165,367,341,381,120,357,252,392,430,0,126,402,242,1835,1276,4034,4216,2527,2346,916,3651,2937,2702,5071,5157,4462,4336,4064,2649,3169,206,2749,4289],[18,29,58,34,61,25,66,16,0,30,15,50,90,56,28,21,12,49,14,56,41,4,50,26,22,20,22,61,16,22,28,26,81,24,20,21,27,25,63,17,113,178,199,292,114,132,183,116,73,102,331,274,126,33,156,117,301,421,211,100,153,103,116,116,107,286,40,50,93,351,115,42,427,246,99,353,205,0,252,102,775,1276,3569,1185,797,768,395,1000,1075,1195,1393,1361,1401,1437,2853,821,1271,206,4088,5376],[44,114,63,84,81,85,64,56,0,23,58,27,52,25,72,21,33,69,14,68,35,13,54,86,63,20,50,105,52,22,28,102,69,57,20,51,98,25,64,41,398,301,294,320,114,140,244,250,73,245,352,431,229,33,335,145,306,256,180,341,136,212,253,247,336,357,108,50,241,217,345,123,359,246,99,433,297,163,0,272,1501,2656,2445,1185,797,835,395,2560,1075,1195,4371,4190,3705,3587,4064,2364,3875,621,2282,3619],[18,29,60,33,63,95,47,39,0,25,26,61,79,78,44,21,12,36,14,47,49,4,58,81,83,20,22,100,56,22,69,75,69,57,20,33,27,25,56,17,113,332,326,434,327,269,282,337,191,112,330,228,159,33,279,164,301,371,184,100,130,206,116,276,214,292,109,50,177,269,341,42,428,184,205,292,259,42,329,0,2545,1276,4092,2560,797,768,1299,1000,2327,1195,1393,1377,5199,1755,3981,821,4863,206,3326,3626],[18,29,28,72,22,25,50,48,0,20,39,76,26,74,106,64,46,51,14,26,36,4,58,68,22,20,46,88,27,22,46,26,23,24,20,22,89,27,78,17,341,119,241,316,235,279,103,169,236,165,257,235,106,33,362,273,294,117,73,285,52,277,287,116,334,134,40,50,317,211,393,42,304,64,229,424,222,42,250,192,0,1900,2452,1185,797,768,1134,1000,3288,1195,3977,3067,2321,4112,2817,2357,2074,557,1064,1359],[18,70,18,63,22,25,43,30,0,20,45,52,30,56,70,60,26,60,39,82,48,11,40,26,44,74,44,67,16,22,47,85,64,31,75,21,64,25,66,63,390,410,358,408,324,109,232,191,73,272,250,353,389,33,369,106,234,146,168,338,52,195,387,196,304,334,40,50,189,209,350,88,247,211,206,447,86,42,250,102,1417,0,3313,1185,1953,2963,395,1000,3373,1195,4029,3456,3186,3801,2083,821,2142,206,1064,1359],[56,29,49,29,65,25,20,16,0,20,45,79,100,83,48,21,12,38,29,67,43,4,40,57,22,48,22,69,16,22,50,39,80,24,67,21,87,25,75,56,276,430,286,388,114,277,261,155,199,115,433,114,160,33,409,195,354,402,177,211,145,273,393,116,305,424,40,50,238,259,115,42,266,175,272,313,324,90,303,223,2519,1276,0,3059,797,2164,1287,2186,3361,1195,4020,2662,1401,4181,2723,2423,1271,206,2343,2861],[18,29,57,76,59,94,57,62,0,53,44,61,95,68,47,21,24,63,14,76,48,4,47,95,78,38,22,79,39,57,104,61,23,62,20,58,61,53,82,17,116,251,335,335,421,262,277,263,210,112,352,280,240,104,324,319,285,245,284,369,107,232,254,378,306,311,129,150,283,359,352,124,338,160,325,290,177,105,272,354,775,1276,3710,0,1480,768,1213,2335,2281,2666,5025,1847,5317,2289,4045,2154,5013,206,3406,4131],[27,113,30,87,55,25,73,16,0,50,37,27,48,25,62,21,28,61,14,22,43,13,41,71,59,26,22,100,28,51,110,74,59,64,20,77,68,60,92,37,239,339,415,457,114,428,144,274,73,331,315,241,334,112,241,307,238,113,229,100,52,385,463,249,281,282,40,172,319,219,218,104,316,171,99,289,216,42,111,102,775,4357,1097,3198,0,768,849,1000,2639,1195,4456,1361,1401,4755,1390,821,1271,206,1064,1359],[67,29,45,43,22,25,44,34,0,20,47,104,45,53,76,58,42,38,41,77,33,4,54,69,22,62,49,100,27,22,79,43,23,24,77,25,87,25,77,17,386,420,261,306,395,166,296,128,166,164,236,285,106,33,396,226,255,177,73,239,52,258,357,270,353,207,40,50,272,168,312,42,242,64,299,396,323,42,207,254,775,1846,3067,1185,797,0,1358,1000,3154,1195,4115,4842,2251,4254,2764,2896,2087,745,1064,1359],[18,29,48,78,55,25,50,16,0,46,36,70,50,25,42,21,23,31,14,51,57,4,41,97,22,32,22,97,34,60,87,30,78,76,26,56,85,87,88,17,113,119,357,417,349,368,203,203,291,125,422,202,106,103,277,285,387,113,195,282,52,227,435,143,335,199,40,197,324,321,306,103,374,64,99,238,255,42,111,254,1577,1276,2378,4059,830,768,0,1000,1075,3839,4358,2268,1401,1261,1310,1761,1271,206,1064,1359],[18,29,39,42,76,25,71,16,0,27,15,41,71,62,28,21,12,34,14,60,42,4,46,26,22,20,22,97,16,22,28,26,61,24,20,21,27,25,83,17,113,137,208,293,114,109,111,116,73,102,234,219,148,33,130,139,353,352,160,100,150,103,116,116,107,301,40,50,93,291,115,42,428,236,99,203,238,42,396,102,775,1276,2991,1185,797,768,395,0,1075,1195,1393,1361,1401,1421,3854,821,1271,206,2530,4176],[70,82,44,80,86,25,71,16,0,71,35,94,87,90,53,21,21,61,44,78,44,8,70,79,41,50,22,86,26,45,80,80,78,74,40,79,97,57,74,49,377,247,317,425,275,323,355,235,275,379,427,279,413,85,381,330,339,291,213,306,202,303,451,207,320,388,40,137,357,312,428,99,453,231,99,251,289,158,409,262,1556,2959,3396,4191,2250,2926,395,3413,0,3143,4554,3519,1401,3307,4693,3085,1271,206,3838,2973],[18,29,33,82,47,25,42,16,0,51,33,27,92,25,28,21,31,19,14,29,44,4,32,79,22,39,22,97,31,81,83,26,24,77,20,61,88,56,76,17,113,119,104,422,114,366,122,120,73,102,305,114,106,70,202,252,164,113,256,100,52,227,273,223,310,118,40,193,314,264,115,162,324,64,99,256,106,42,111,102,775,1276,1097,2829,797,768,727,1000,2691,0,3478,1361,1401,1261,1310,821,1271,206,1064,1359],[60,87,68,92,49,71,49,44,0,63,50,100,95,97,61,82,43,60,30,71,58,12,63,95,82,69,73,103,51,64,91,79,91,76,73,83,95,25,86,61,438,341,279,398,454,294,281,298,281,329,360,279,346,125,410,362,353,259,281,100,125,258,116,346,361,440,82,133,272,272,380,144,459,224,337,446,272,42,304,102,2470,3861,2902,3746,2070,2233,1569,1000,3402,4166,0,4331,5484,4254,3314,821,4826,565,3687,3398],[64,29,66,53,22,78,39,54,0,20,55,86,28,87,59,57,24,56,47,50,59,4,40,95,49,20,59,82,32,22,54,42,67,60,76,46,97,25,89,55,380,459,325,343,375,194,232,322,222,244,375,364,110,33,341,214,353,118,119,235,52,245,327,427,107,118,159,50,242,197,443,42,302,127,343,119,268,42,276,320,1903,2776,1847,3917,797,2166,920,1000,3173,1195,4239,0,3012,4583,4214,2915,2863,492,1064,1359],[18,29,18,60,22,56,39,52,0,20,58,72,26,61,103,54,44,71,14,22,15,4,41,52,66,20,79,92,35,22,28,68,63,24,20,50,79,25,89,17,401,362,104,355,114,109,210,116,73,155,136,391,112,33,341,128,205,188,92,251,52,243,255,267,286,218,129,50,310,190,192,42,155,171,99,304,167,42,340,392,1252,2044,1097,1307,797,786,395,1000,1075,1195,2730,4328,0,2485,3816,821,2785,591,1064,1359],[51,29,58,64,51,54,57,33,0,43,59,59,95,88,67,48,29,62,48,73,56,8,62,92,69,75,22,92,50,51,105,26,63,70,61,80,89,71,83,51,384,415,344,388,454,251,348,375,263,246,364,364,369,69,385,345,330,441,280,353,152,277,430,352,332,398,84,191,318,282,330,95,407,229,346,375,266,148,417,350,2142,3742,3307,2702,2935,2153,1051,3212,2707,2894,4219,4774,3528,0,4656,2876,2882,502,2841,4121],[47,77,47,53,73,74,47,52,0,33,15,95,71,93,84,78,42,59,49,77,55,15,64,68,58,43,79,77,51,22,64,81,90,53,52,50,73,25,91,60,365,302,329,335,357,276,323,319,165,251,432,244,276,33,415,315,314,246,154,348,205,309,343,401,374,347,82,50,319,316,341,97,396,167,332,356,326,92,323,309,2882,4706,2901,4555,3164,2162,1253,2451,3487,1195,5015,4138,4307,3690,0,3045,4418,655,3113,4545],[18,29,54,37,64,25,38,16,0,28,15,68,81,56,32,21,12,54,14,55,50,4,46,85,22,20,22,59,16,22,77,38,56,24,21,38,29,25,81,17,113,119,311,392,309,234,143,191,228,108,344,280,213,33,344,314,354,257,187,100,116,219,116,116,299,346,40,50,255,216,265,42,440,174,330,255,240,42,345,102,1865,1276,4123,2644,797,768,1233,1000,3501,1195,1393,2441,1401,1944,3350,0,1271,206,2620,2730],[18,29,54,41,22,66,38,38,0,20,50,91,26,63,98,56,30,19,14,22,15,4,40,103,57,20,65,92,46,22,28,55,86,42,20,47,78,25,81,17,380,242,104,222,114,109,257,371,73,180,222,309,121,33,112,106,200,170,120,286,52,103,240,236,348,222,119,50,237,235,347,42,116,161,99,268,263,42,385,246,1820,2075,1097,1185,797,777,395,1000,1075,1195,1545,5283,5044,2676,3424,821,0,661,1064,1359],[18,29,18,54,22,25,52,35,0,20,50,35,26,65,99,72,32,49,14,22,15,4,43,26,22,20,84,81,16,22,28,26,60,24,20,21,95,25,56,17,330,119,104,202,114,109,125,116,73,190,201,399,106,33,196,106,140,172,73,325,52,195,237,116,278,186,40,50,213,103,265,42,116,64,99,306,86,42,206,102,1878,1276,1097,1185,797,768,395,1000,1075,1195,1393,4242,3129,4138,2425,821,1892,0,1064,1359],[18,29,47,37,83,25,40,16,0,34,15,53,64,61,28,21,12,36,14,44,40,4,64,26,22,20,22,102,16,22,28,26,47,24,20,21,27,25,81,17,113,162,147,341,114,162,117,116,73,102,280,242,201,33,194,106,188,428,174,347,169,103,173,116,107,366,40,50,93,228,115,42,335,160,99,259,270,132,443,122,775,1276,3720,1185,797,768,395,2312,1338,1195,4418,1361,1401,2144,4147,2099,1271,206,0,3851],[18,29,36,44,75,25,37,16,0,26,15,49,74,79,28,21,12,51,14,22,42,4,53,26,22,20,22,71,16,22,28,26,70,24,20,21,27,25,62,17,113,170,225,303,114,109,115,116,73,102,119,171,129,33,158,128,233,425,161,312,131,103,116,116,107,355,40,50,93,385,115,42,393,165,99,341,310,130,322,134,775,1276,2212,1185,797,768,395,2574,1311,1195,3959,1361,1401,2078,4415,1978,1271,206,3720,0],];
precedences = [{},{},{},{},{22},{79,12,22},{},{27,17},{},{},{},{},{},{},{97},{},{74,95},{},{},{79},{},{25},{},{},{},{},{},{},{64},{},{},{},{},{},{28,71,83},{},{},{},{},{74},{},{36},{25},{},{68},{},{},{87,64},{},{},{},{},{},{},{},{},{71},{},{},{25},{},{},{},{59,60},{},{77,35},{},{66},{},{},{43,73},{},{},{60,34},{},{},{},{42},{35,64},{},{48,17},{},{14},{},{81},{},{25},{},{27},{},{},{},{},{},{},{64},{},{29},{},{},];
required_resource = [[0,0,0,0,0,0,4,0,4,0],[0,3,0,2,0,0,0,0,0,0],[0,0,0,0,0,2,0,0,1,0],[2,1,1,0,4,4,4,3,1,3],[4,2,4,2,0,0,4,0,3,2],[0,0,0,0,0,0,0,0,0,0],[0,0,0,0,0,0,0,0,0,0],[0,0,0,0,0,0,0,0,0,0],[0,0,0,0,0,0,0,0,0,0],[0,0,0,0,0,0,0,0,0,0],[0,0,0,0,0,0,0,0,0,0],[1,3,0,0,3,4,0,0,0,0],[0,0,0,0,0,0,0,0,0,0],[0,0,0,0,0,0,0,0,0,0],[3,0,0,1,0,3,3,1,1,2],[0,0,0,0,0,0,0,0,0,0],[0,0,0,0,0,0,0,0,0,0],[3,2,4,1,0,0,4,0,3,4],[0,0,0,0,0,0,0,0,0,0],[2,2,1,0,3,1,0,4,3,0],[0,0,0,0,0,4,0,0,1,0],[0,3,4,0,0,2,0,1,2,0],[4,0,0,1,0,3,2,2,4,4],[4,0,0,0,0,0,1,0,0,0],[4,1,2,1,2,2,1,1,2,4],[2,4,3,0,0,0,3,0,0,1],[0,0,0,0,0,0,0,0,0,0],[2,3,3,3,4,0,1,2,3,2],[0,0,0,0,0,0,0,0,0,0],[0,0,0,0,0,0,0,0,0,0],[0,0,0,0,0,0,0,0,0,0],[0,4,0,3,0,0,0,0,0,0],[4,0,0,2,0,3,0,0,0,0],[0,0,0,0,0,4,0,0,4,0],[0,0,0,0,0,0,0,0,0,0],[0,0,0,0,0,0,0,0,0,0],[1,4,3,0,2,3,1,4,3,1],[0,0,0,0,0,0,0,0,0,0],[0,0,0,0,0,0,0,0,0,0],[2,0,0,3,0,3,0,0,0,0],[2,0,0,4,0,4,3,4,2,1],[0,1,1,0,0,4,0,1,3,0],[1,1,1,3,4,0,4,3,2,1],[1,3,1,4,4,0,2,2,1,4],[0,0,0,0,0,0,0,0,0,0],[0,0,0,0,0,0,0,0,0,0],[3,3,2,0,1,1,1,3,2,2],[0,0,0,0,0,3,0,0,1,0],[0,0,0,0,0,0,0,0,0,0],[0,2,1,0,0,1,0,2,3,0],[1,2,4,0,2,3,0,1,4,0],[0,0,0,1,3,1,0,0,1,0],[1,0,0,0,0,0,2,0,0,0],[0,0,0,0,0,0,0,0,0,0],[0,0,0,0,0,0,0,0,0,0],[0,0,0,0,0,0,0,0,0,0],[1,0,0,3,0,4,3,4,3,2],[0,0,0,0,0,0,0,0,0,0],[2,3,1,0,2,1,3,1,4,3],[0,0,0,0,0,0,0,0,0,0],[0,0,0,0,0,0,0,0,0,0],[0,0,0,0,0,0,0,0,0,0],[0,0,0,3,0,0,0,0,1,1],[0,0,0,0,0,0,0,0,0,0],[3,4,2,0,0,0,4,0,0,4],[3,3,2,0,0,0,4,0,0,3],[0,0,0,0,0,0,0,0,0,0],[0,0,0,0,0,0,0,0,0,0],[3,0,0,0,0,0,4,0,0,0],[4,4,3,0,3,2,2,3,2,3],[0,0,0,1,4,1,0,0,3,0],[1,0,0,3,0,2,2,3,3,3],[1,0,0,1,0,1,4,2,3,2],[1,3,2,0,2,2,2,1,3,2],[0,0,0,0,0,0,0,0,0,0],[4,1,3,0,0,0,3,0,0,4],[0,0,0,0,0,0,4,0,1,0],[0,0,0,0,0,0,0,0,0,0],[4,3,0,0,3,3,0,0,0,0],[0,0,0,0,0,0,0,0,0,0],[0,0,0,0,0,0,0,0,0,0],[0,0,0,0,0,0,3,0,4,0],[0,0,0,0,0,0,0,0,0,0],[0,0,0,0,0,0,0,0,0,0],[1,1,0,0,2,3,0,0,0,0],[0,0,0,0,0,0,0,0,0,0],[0,0,0,0,0,0,0,0,0,0],[0,0,0,0,0,0,0,0,0,0],[0,0,0,3,4,4,0,3,3,0],[0,0,0,0,0,0,0,0,0,0],[0,0,0,1,0,0,0,0,4,4],[0,0,0,0,0,0,0,0,0,0],[0,0,0,0,0,0,0,0,0,0],[0,3,0,2,0,0,0,0,0,0],[0,4,1,0,0,3,3,4,0,0],[0,0,0,0,0,0,0,0,0,0],[0,0,0,0,0,0,0,0,0,0],[0,0,0,0,0,0,0,0,0,0],[0,0,0,0,0,0,0,0,0,0],[0,0,0,0,0,0,0,0,0,0],];
n_res_periods = [29,15,13,18,13,12,11,108,28,20,];
res_period_start = [[0,7049,14098,21147,28196,35245,42294,49343,56392,63441,70490,77539,84588,91637,98686,105735,112784,119833,126882,133931,140980,148029,155078,162127,169176,176225,183274,190323,197372,0,0,0,0,0,0,0,0,0,0,0,0,0,0,0,0,0,0,0,0,0,0,0,0,0,0,0,0,0,0,0,0,0,0,0,0,0,0,0,0,0,0,0,0,0,0,0,0,0,0,0,0,0,0,0,0,0,0,0,0,0,0,0,0,0,0,0,0,0,0,0,0,0,0,0,0,0,0,0],[0,13583,27166,40749,54332,67915,81498,95081,108664,122247,135830,149413,162996,176579,190162,0,0,0,0,0,0,0,0,0,0,0,0,0,0,0,0,0,0,0,0,0,0,0,0,0,0,0,0,0,0,0,0,0,0,0,0,0,0,0,0,0,0,0,0,0,0,0,0,0,0,0,0,0,0,0,0,0,0,0,0,0,0,0,0,0,0,0,0,0,0,0,0,0,0,0,0,0,0,0,0,0,0,0,0,0,0,0,0,0,0,0,0,0],[0,15839,31678,47517,63356,79195,95034,110873,126712,142551,158390,174229,190068,0,0,0,0,0,0,0,0,0,0,0,0,0,0,0,0,0,0,0,0,0,0,0,0,0,0,0,0,0,0,0,0,0,0,0,0,0,0,0,0,0,0,0,0,0,0,0,0,0,0,0,0,0,0,0,0,0,0,0,0,0,0,0,0,0,0,0,0,0,0,0,0,0,0,0,0,0,0,0,0,0,0,0,0,0,0,0,0,0,0,0,0,0,0,0],[0,11738,23476,35214,46952,58690,70428,82166,93904,105642,117380,129118,140856,152594,164332,176070,187808,199546,0,0,0,0,0,0,0,0,0,0,0,0,0,0,0,0,0,0,0,0,0,0,0,0,0,0,0,0,0,0,0,0,0,0,0,0,0,0,0,0,0,0,0,0,0,0,0,0,0,0,0,0,0,0,0,0,0,0,0,0,0,0,0,0,0,0,0,0,0,0,0,0,0,0,0,0,0,0,0,0,0,0,0,0,0,0,0,0,0,0],[0,16384,32768,49152,65536,81920,98304,114688,131072,147456,163840,180224,196608,0,0,0,0,0,0,0,0,0,0,0,0,0,0,0,0,0,0,0,0,0,0,0,0,0,0,0,0,0,0,0,0,0,0,0,0,0,0,0,0,0,0,0,0,0,0,0,0,0,0,0,0,0,0,0,0,0,0,0,0,0,0,0,0,0,0,0,0,0,0,0,0,0,0,0,0,0,0,0,0,0,0,0,0,0,0,0,0,0,0,0,0,0,0,0],[0,17465,34930,52395,69860,87325,104790,122255,139720,157185,174650,192115,0,0,0,0,0,0,0,0,0,0,0,0,0,0,0,0,0,0,0,0,0,0,0,0,0,0,0,0,0,0,0,0,0,0,0,0,0,0,0,0,0,0,0,0,0,0,0,0,0,0,0,0,0,0,0,0,0,0,0,0,0,0,0,0,0,0,0,0,0,0,0,0,0,0,0,0,0,0,0,0,0,0,0,0,0,0,0,0,0,0,0,0,0,0,0,0],[0,18952,37904,56856,75808,94760,113712,132664,151616,170568,189520,0,0,0,0,0,0,0,0,0,0,0,0,0,0,0,0,0,0,0,0,0,0,0,0,0,0,0,0,0,0,0,0,0,0,0,0,0,0,0,0,0,0,0,0,0,0,0,0,0,0,0,0,0,0,0,0,0,0,0,0,0,0,0,0,0,0,0,0,0,0,0,0,0,0,0,0,0,0,0,0,0,0,0,0,0,0,0,0,0,0,0,0,0,0,0,0,0],[0,1860,3720,5580,7440,9300,11160,13020,14880,16740,18600,20460,22320,24180,26040,27900,29760,31620,33480,35340,37200,39060,40920,42780,44640,46500,48360,50220,52080,53940,55800,57660,59520,61380,63240,65100,66960,68820,70680,72540,74400,76260,78120,79980,81840,83700,85560,87420,89280,91140,93000,94860,96720,98580,100440,102300,104160,106020,107880,109740,111600,113460,115320,117180,119040,120900,122760,124620,126480,128340,130200,132060,133920,135780,137640,139500,141360,143220,145080,146940,148800,150660,152520,154380,156240,158100,159960,161820,163680,165540,167400,169260,171120,172980,174840,176700,178560,180420,182280,184140,186000,187860,189720,191580,193440,195300,197160,199020],[0,7161,14322,21483,28644,35805,42966,50127,57288,64449,71610,78771,85932,93093,100254,107415,114576,121737,128898,136059,143220,150381,157542,164703,171864,179025,186186,193347,0,0,0,0,0,0,0,0,0,0,0,0,0,0,0,0,0,0,0,0,0,0,0,0,0,0,0,0,0,0,0,0,0,0,0,0,0,0,0,0,0,0,0,0,0,0,0,0,0,0,0,0,0,0,0,0,0,0,0,0,0,0,0,0,0,0,0,0,0,0,0,0,0,0,0,0,0,0,0,0],[0,10073,20146,30219,40292,50365,60438,70511,80584,90657,100730,110803,120876,130949,141022,151095,161168,171241,181314,191387,0,0,0,0,0,0,0,0,0,0,0,0,0,0,0,0,0,0,0,0,0,0,0,0,0,0,0,0,0,0,0,0,0,0,0,0,0,0,0,0,0,0,0,0,0,0,0,0,0,0,0,0,0,0,0,0,0,0,0,0,0,0,0,0,0,0,0,0,0,0,0,0,0,0,0,0,0,0,0,0,0,0,0,0,0,0,0,0],];
res_period_end = [[7049,14098,21147,28196,35245,42294,49343,56392,63441,70490,77539,84588,91637,98686,105735,112784,119833,126882,133931,140980,148029,155078,162127,169176,176225,183274,190323,197372,200000,0,0,0,0,0,0,0,0,0,0,0,0,0,0,0,0,0,0,0,0,0,0,0,0,0,0,0,0,0,0,0,0,0,0,0,0,0,0,0,0,0,0,0,0,0,0,0,0,0,0,0,0,0,0,0,0,0,0,0,0,0,0,0,0,0,0,0,0,0,0,0,0,0,0,0,0,0,0,0],[13583,27166,40749,54332,67915,81498,95081,108664,122247,135830,149413,162996,176579,190162,200000,0,0,0,0,0,0,0,0,0,0,0,0,0,0,0,0,0,0,0,0,0,0,0,0,0,0,0,0,0,0,0,0,0,0,0,0,0,0,0,0,0,0,0,0,0,0,0,0,0,0,0,0,0,0,0,0,0,0,0,0,0,0,0,0,0,0,0,0,0,0,0,0,0,0,0,0,0,0,0,0,0,0,0,0,0,0,0,0,0,0,0,0,0],[15839,31678,47517,63356,79195,95034,110873,126712,142551,158390,174229,190068,200000,0,0,0,0,0,0,0,0,0,0,0,0,0,0,0,0,0,0,0,0,0,0,0,0,0,0,0,0,0,0,0,0,0,0,0,0,0,0,0,0,0,0,0,0,0,0,0,0,0,0,0,0,0,0,0,0,0,0,0,0,0,0,0,0,0,0,0,0,0,0,0,0,0,0,0,0,0,0,0,0,0,0,0,0,0,0,0,0,0,0,0,0,0,0,0],[11738,23476,35214,46952,58690,70428,82166,93904,105642,117380,129118,140856,152594,164332,176070,187808,199546,200000,0,0,0,0,0,0,0,0,0,0,0,0,0,0,0,0,0,0,0,0,0,0,0,0,0,0,0,0,0,0,0,0,0,0,0,0,0,0,0,0,0,0,0,0,0,0,0,0,0,0,0,0,0,0,0,0,0,0,0,0,0,0,0,0,0,0,0,0,0,0,0,0,0,0,0,0,0,0,0,0,0,0,0,0,0,0,0,0,0,0],[16384,32768,49152,65536,81920,98304,114688,131072,147456,163840,180224,196608,200000,0,0,0,0,0,0,0,0,0,0,0,0,0,0,0,0,0,0,0,0,0,0,0,0,0,0,0,0,0,0,0,0,0,0,0,0,0,0,0,0,0,0,0,0,0,0,0,0,0,0,0,0,0,0,0,0,0,0,0,0,0,0,0,0,0,0,0,0,0,0,0,0,0,0,0,0,0,0,0,0,0,0,0,0,0,0,0,0,0,0,0,0,0,0,0],[17465,34930,52395,69860,87325,104790,122255,139720,157185,174650,192115,200000,0,0,0,0,0,0,0,0,0,0,0,0,0,0,0,0,0,0,0,0,0,0,0,0,0,0,0,0,0,0,0,0,0,0,0,0,0,0,0,0,0,0,0,0,0,0,0,0,0,0,0,0,0,0,0,0,0,0,0,0,0,0,0,0,0,0,0,0,0,0,0,0,0,0,0,0,0,0,0,0,0,0,0,0,0,0,0,0,0,0,0,0,0,0,0,0],[18952,37904,56856,75808,94760,113712,132664,151616,170568,189520,200000,0,0,0,0,0,0,0,0,0,0,0,0,0,0,0,0,0,0,0,0,0,0,0,0,0,0,0,0,0,0,0,0,0,0,0,0,0,0,0,0,0,0,0,0,0,0,0,0,0,0,0,0,0,0,0,0,0,0,0,0,0,0,0,0,0,0,0,0,0,0,0,0,0,0,0,0,0,0,0,0,0,0,0,0,0,0,0,0,0,0,0,0,0,0,0,0,0],[1860,3720,5580,7440,9300,11160,13020,14880,16740,18600,20460,22320,24180,26040,27900,29760,31620,33480,35340,37200,39060,40920,42780,44640,46500,48360,50220,52080,53940,55800,57660,59520,61380,63240,65100,66960,68820,70680,72540,74400,76260,78120,79980,81840,83700,85560,87420,89280,91140,93000,94860,96720,98580,100440,102300,104160,106020,107880,109740,111600,113460,115320,117180,119040,120900,122760,124620,126480,128340,130200,132060,133920,135780,137640,139500,141360,143220,145080,146940,148800,150660,152520,154380,156240,158100,159960,161820,163680,165540,167400,169260,171120,172980,174840,176700,178560,180420,182280,184140,186000,187860,189720,191580,193440,195300,197160,199020,200000],[7161,14322,21483,28644,35805,42966,50127,57288,64449,71610,78771,85932,93093,100254,107415,114576,121737,128898,136059,143220,150381,157542,164703,171864,179025,186186,193347,200000,0,0,0,0,0,0,0,0,0,0,0,0,0,0,0,0,0,0,0,0,0,0,0,0,0,0,0,0,0,0,0,0,0,0,0,0,0,0,0,0,0,0,0,0,0,0,0,0,0,0,0,0,0,0,0,0,0,0,0,0,0,0,0,0,0,0,0,0,0,0,0,0,0,0,0,0,0,0,0,0],[10073,20146,30219,40292,50365,60438,70511,80584,90657,100730,110803,120876,130949,141022,151095,161168,171241,181314,191387,200000,0,0,0,0,0,0,0,0,0,0,0,0,0,0,0,0,0,0,0,0,0,0,0,0,0,0,0,0,0,0,0,0,0,0,0,0,0,0,0,0,0,0,0,0,0,0,0,0,0,0,0,0,0,0,0,0,0,0,0,0,0,0,0,0,0,0,0,0,0,0,0,0,0,0,0,0,0,0,0,0,0,0,0,0,0,0,0,0],];
res_period_capacity = [[20,21,20,18,15,0,14,12,15,16,19,16,15,13,12,14,16,18,0,0,17,0,19,20,22,0,0,0,0,0,0,0,0,0,0,0,0,0,0,0,0,0,0,0,0,0,0,0,0,0,0,0,0,0,0,0,0,0,0,0,0,0,0,0,0,0,0,0,0,0,0,0,0,0,0,0,0,0,0,0,0,0,0,0,0,0,0,0,0,0,0,0,0,0,0,0,0,0,0,0,0,0,0,0,0,0,0,0],[18,17,15,16,17,20,20,0,21,21,17,15,15,16,17,0,0,0,0,0,0,0,0,0,0,0,0,0,0,0,0,0,0,0,0,0,0,0,0,0,0,0,0,0,0,0,0,0,0,0,0,0,0,0,0,0,0,0,0,0,0,0,0,0,0,0,0,0,0,0,0,0,0,0,0,0,0,0,0,0,0,0,0,0,0,0,0,0,0,0,0,0,0,0,0,0,0,0,0,0,0,0,0,0,0,0,0,0],[19,21,19,18,16,16,17,16,15,12,12,10,13,0,0,0,0,0,0,0,0,0,0,0,0,0,0,0,0,0,0,0,0,0,0,0,0,0,0,0,0,0,0,0,0,0,0,0,0,0,0,0,0,0,0,0,0,0,0,0,0,0,0,0,0,0,0,0,0,0,0,0,0,0,0,0,0,0,0,0,0,0,0,0,0,0,0,0,0,0,0,0,0,0,0,0,0,0,0,0,0,0,0,0,0,0,0,0],[15,14,13,14,16,14,15,13,0,13,16,15,12,16,15,0,16,15,0,0,0,0,0,0,0,0,0,0,0,0,0,0,0,0,0,0,0,0,0,0,0,0,0,0,0,0,0,0,0,0,0,0,0,0,0,0,0,0,0,0,0,0,0,0,0,0,0,0,0,0,0,0,0,0,0,0,0,0,0,0,0,0,0,0,0,0,0,0,0,0,0,0,0,0,0,0,0,0,0,0,0,0,0,0,0,0,0,0],[18,18,16,0,18,0,17,0,19,19,17,15,16,0,0,0,0,0,0,0,0,0,0,0,0,0,0,0,0,0,0,0,0,0,0,0,0,0,0,0,0,0,0,0,0,0,0,0,0,0,0,0,0,0,0,0,0,0,0,0,0,0,0,0,0,0,0,0,0,0,0,0,0,0,0,0,0,0,0,0,0,0,0,0,0,0,0,0,0,0,0,0,0,0,0,0,0,0,0,0,0,0,0,0,0,0,0,0],[20,21,18,19,16,15,14,13,0,14,14,14,0,0,0,0,0,0,0,0,0,0,0,0,0,0,0,0,0,0,0,0,0,0,0,0,0,0,0,0,0,0,0,0,0,0,0,0,0,0,0,0,0,0,0,0,0,0,0,0,0,0,0,0,0,0,0,0,0,0,0,0,0,0,0,0,0,0,0,0,0,0,0,0,0,0,0,0,0,0,0,0,0,0,0,0,0,0,0,0,0,0,0,0,0,0,0,0],[18,16,15,15,0,13,14,0,12,15,0,0,0,0,0,0,0,0,0,0,0,0,0,0,0,0,0,0,0,0,0,0,0,0,0,0,0,0,0,0,0,0,0,0,0,0,0,0,0,0,0,0,0,0,0,0,0,0,0,0,0,0,0,0,0,0,0,0,0,0,0,0,0,0,0,0,0,0,0,0,0,0,0,0,0,0,0,0,0,0,0,0,0,0,0,0,0,0,0,0,0,0,0,0,0,0,0,0],[25,21,19,19,20,20,21,23,22,18,19,21,20,18,19,0,0,0,0,16,0,0,17,17,18,18,17,17,19,17,0,19,21,19,15,12,14,14,0,14,12,0,0,15,15,0,16,17,17,18,20,21,21,20,0,17,15,13,12,11,13,15,16,13,15,0,14,0,14,14,14,15,16,14,0,17,19,17,16,15,18,17,18,17,18,19,20,16,17,16,17,17,15,16,17,19,16,18,0,20,19,16,16,15,13,0,12,14],[27,27,27,27,0,26,21,18,0,17,0,19,19,18,16,17,0,17,19,20,0,20,0,0,21,0,20,21,0,0,0,0,0,0,0,0,0,0,0,0,0,0,0,0,0,0,0,0,0,0,0,0,0,0,0,0,0,0,0,0,0,0,0,0,0,0,0,0,0,0,0,0,0,0,0,0,0,0,0,0,0,0,0,0,0,0,0,0,0,0,0,0,0,0,0,0,0,0,0,0,0,0,0,0,0,0,0,0],[21,18,17,17,18,16,0,18,17,16,13,14,16,14,13,15,16,0,14,14,0,0,0,0,0,0,0,0,0,0,0,0,0,0,0,0,0,0,0,0,0,0,0,0,0,0,0,0,0,0,0,0,0,0,0,0,0,0,0,0,0,0,0,0,0,0,0,0,0,0,0,0,0,0,0,0,0,0,0,0,0,0,0,0,0,0,0,0,0,0,0,0,0,0,0,0,0,0,0,0,0,0,0,0,0,0,0,0],];
