n_jobs = 10;
n_machines = 3;
n_resources = 2;
max_periods = 17;
processing = [56,41,47,58,171,228,214,215,1963,867];
due = [178,1241,68,58,1505,2025,794,575,4841,1801];
initial_setup = [19,26,15,29,84,83,96,116,1428,742];
eligible = [{1},{1,2},{1,2,3},{1,2,3},{1,2,3},{1,3},{1,3},{1,2,3},{2,3},{1},];
setup = [[0,77,29,23,227,304,264,109,755,361],[55,0,51,91,140,320,399,141,2415,555],[16,49,0,60,279,312,375,287,2490,425],[39,65,111,0,250,310,285,252,2949,296],[43,54,100,83,0,96,391,273,2554,377],[59,63,99,49,104,0,293,270,1807,409],[49,65,91,45,359,341,0,289,1744,449],[37,62,105,61,335,194,308,0,2246,330],[16,20,62,89,405,176,206,297,0,146],[55,45,39,26,172,336,228,126,755,0],];
precedences = [{},{9},{},{},{2},{4},{},{},{},{},];
required_resource = [[2,4],[1,2],[4,4],[1,0],[0,4],[0,1],[0,1],[0,2],[0,0],[2,0],];
n_res_periods = [17,16,];
res_period_start = [[0,1238,2476,3714,4952,6190,7428,8666,9904,11142,12380,13618,14856,16094,17332,18570,19808],[0,1297,2594,3891,5188,6485,7782,9079,10376,11673,12970,14267,15564,16861,18158,19455,0],];
res_period_end = [[1238,2476,3714,4952,6190,7428,8666,9904,11142,12380,13618,14856,16094,17332,18570,19808,20000],[1297,2594,3891,5188,6485,7782,9079,10376,11673,12970,14267,15564,16861,18158,19455,20000,0],];
res_period_capacity = [[8,11,10,0,0,9,0,0,0,8,12,12,0,13,13,14,15],[11,12,0,15,0,17,0,15,0,18,17,19,18,18,19,21,0],];
