n_jobs = 50;
n_machines = 2;
n_resources = 8;
max_periods = 91;
processing = [53,12,14,45,41,52,19,32,33,24,55,1,54,14,5,52,11,44,21,4,225,190,185,176,188,186,223,129,76,200,116,212,80,87,110,209,223,175,82,239,2439,1273,694,817,872,1173,2337,2296,2657,2159];
due = [91,39052,66,36831,25558,56571,53,17948,79,14658,61,80,70,596,559,31006,303,778,768,28558,822,1187,40130,21970,2802,1594,786,4069,2873,30521,47277,38915,26329,4379,5097,5080,5980,6313,7519,6379,8133,28721,7212,14096,10801,22482,13989,28564,25898,55324];
initial_setup = [17,7,26,6,13,10,21,22,20,21,10,13,24,18,2,27,20,15,0,7,100,110,112,106,86,43,93,115,53,115,39,102,62,98,33,101,77,34,65,48,336,492,921,972,1413,1096,973,483,1271,731];
eligible = [{1,2},{2},{1,2},{1},{1,2},{2},{1,2},{1,2},{1,2},{2},{1,2},{2},{1,2},{2},{2},{1,2},{1},{1,2},{2},{1},{1,2},{1,2},{1,2},{1,2},{1,2},{1},{1,2},{1},{2},{1,2},{2},{1},{2},{1},{1},{1,2},{1,2},{1},{1},{2},{2},{1,2},{1},{2},{1,2},{1,2},{1,2},{1,2},{1,2},{2},];
setup = [[0,65,38,61,19,46,75,66,54,2,109,29,63,83,67,35,20,42,55,7,241,197,461,139,211,175,440,229,391,45,180,88,233,244,277,246,257,282,393,230,3432,1844,1432,2055,1939,621,2244,3685,4219,2774],[29,0,16,26,7,43,45,58,66,3,51,14,79,97,55,23,7,16,52,2,311,76,255,116,224,59,249,68,335,114,116,88,282,84,74,200,192,118,118,267,3028,1775,509,1657,620,910,3319,2350,2234,3071],[43,66,0,89,19,58,91,77,55,3,62,39,70,100,72,25,7,56,54,5,164,215,417,99,208,157,355,162,211,107,158,275,207,278,235,302,232,238,435,340,3019,2253,1150,2147,1759,1749,2425,4674,2453,3441],[50,21,52,0,20,18,26,22,47,1,111,14,25,28,21,10,19,62,25,5,152,294,319,116,217,159,309,205,102,94,46,302,82,84,219,284,169,259,389,95,1079,749,1670,546,1488,1550,933,2995,1081,1144],[50,55,36,53,0,69,58,73,79,2,78,39,99,76,66,26,21,56,77,6,160,237,407,93,278,185,431,243,327,130,159,255,296,298,224,214,273,299,432,362,3552,749,509,1370,1999,1242,2450,3892,4278,2952],[23,45,16,26,7,0,53,80,70,3,80,30,71,59,49,27,7,16,51,2,203,194,346,147,296,59,267,68,389,120,138,88,82,84,74,191,275,118,118,305,2238,2672,509,1330,1929,708,2617,3027,4056,1144],[35,52,44,26,19,55,0,45,83,2,109,53,82,59,60,26,14,36,84,4,197,280,352,103,200,186,278,166,219,116,123,312,188,84,232,276,223,431,382,231,2910,1662,1696,1286,2345,2074,2221,3513,3449,2608],[56,80,33,67,14,46,65,0,87,2,28,45,94,109,45,27,16,57,96,6,178,209,280,120,322,201,471,252,231,119,122,279,185,242,160,197,242,347,266,305,2795,2571,1429,1653,1972,1791,3206,4647,3547,2609],[48,51,48,55,24,50,79,69,0,3,101,55,97,102,76,31,16,58,96,4,212,260,272,39,270,232,348,182,307,113,150,232,260,312,187,213,306,359,459,260,1079,1519,1417,1703,1628,1974,2398,4957,3942,3196],[27,77,16,26,7,60,55,70,48,0,86,40,89,72,63,27,7,16,97,2,227,188,457,77,286,59,297,68,284,113,146,88,183,84,74,231,252,118,118,95,4057,2128,509,1215,1897,822,2580,3296,1081,3714],[65,70,42,81,18,69,102,22,70,3,0,30,87,74,42,26,25,40,78,7,224,221,427,136,218,129,326,184,300,124,122,299,250,182,259,323,261,383,377,288,2239,1708,1290,1712,2140,1480,3292,2987,4045,3442],[30,21,16,26,7,36,50,55,56,3,75,0,50,81,48,18,7,16,80,2,213,76,290,89,276,59,319,68,365,119,161,88,208,84,74,298,298,118,118,362,2535,2264,509,1155,620,692,2041,3265,4240,3174],[39,60,46,64,17,43,83,65,54,3,87,53,0,58,57,27,23,37,76,7,201,199,398,100,91,59,467,173,393,114,46,343,233,252,220,317,275,302,343,325,4023,1738,1137,1354,2197,1592,3541,3686,2893,3985],[37,48,16,26,7,38,49,45,84,2,77,43,82,0,47,22,7,16,94,2,244,177,334,86,247,59,475,68,310,89,124,88,218,84,74,81,290,118,118,268,3709,2606,509,546,1840,807,2643,3552,3667,3633],[36,75,16,26,7,40,41,65,60,3,68,30,69,104,0,9,7,16,93,2,232,141,334,96,238,59,358,68,102,107,107,88,233,84,74,317,245,118,118,287,2989,2047,509,1304,1411,621,2331,3292,3861,3683],[54,56,48,56,17,47,98,79,78,3,56,46,63,92,21,0,25,49,93,7,287,208,299,150,333,133,441,155,102,124,122,276,249,295,74,283,251,464,465,325,2943,2757,1606,2022,1710,1887,2690,4998,2208,2721],[53,21,16,61,16,18,52,22,54,1,107,14,25,28,21,9,0,52,25,4,167,274,201,119,173,197,344,235,102,131,46,230,82,275,157,179,174,455,266,95,1079,749,1588,546,1766,1382,933,4784,1081,1144],[40,62,37,65,22,56,94,72,55,3,71,48,70,82,49,26,22,0,75,6,199,230,383,141,317,184,428,68,227,91,120,310,326,302,225,282,320,272,375,291,2220,1766,1419,1940,1843,1291,2637,1321,2958,3358],[26,82,16,26,7,52,51,66,72,3,76,35,79,96,55,31,7,16,0,2,79,173,116,106,361,59,286,68,295,74,147,88,327,84,74,291,269,118,118,190,4048,2467,509,1734,1811,621,3562,2170,4263,3778],[37,21,56,60,18,18,97,22,51,1,95,14,25,28,21,9,18,32,25,0,192,299,323,108,200,178,340,230,102,135,46,291,82,296,216,176,216,454,320,95,1079,749,1614,546,2367,1386,933,4862,1081,1144],[67,82,42,74,18,69,86,69,59,3,58,30,70,75,61,31,14,58,25,4,0,276,116,146,220,158,396,162,224,127,102,340,285,325,153,191,215,280,312,307,4031,2697,1033,1220,2099,1332,1989,4745,3858,3134],[40,21,55,52,17,53,66,46,55,2,60,14,99,73,65,30,22,46,84,7,251,0,387,125,331,121,457,184,267,177,149,338,317,182,159,219,183,311,118,367,3068,1784,1584,1768,620,2033,3495,3403,2539,2851],[64,61,52,95,26,66,79,46,48,2,80,44,92,66,42,19,21,56,25,7,79,218,0,145,224,186,366,217,258,103,144,270,222,246,286,260,247,439,412,271,2474,1829,1986,1567,2162,1450,2334,3684,2498,2292],[60,65,39,93,27,47,102,73,22,3,68,29,65,82,54,24,18,35,56,6,245,256,353,0,222,220,380,204,208,110,139,180,262,248,181,248,240,408,266,224,1079,1982,1663,1453,2101,1926,3378,4693,4048,2790],[61,49,63,59,22,69,91,47,72,3,110,49,25,70,50,31,15,57,99,5,198,240,412,138,0,59,306,209,385,145,46,336,169,262,154,174,228,303,362,362,3563,2631,1618,1460,2134,1662,2989,4614,3619,4169],[66,21,32,99,20,18,67,22,49,1,101,14,25,28,21,9,16,52,25,7,146,285,288,147,91,0,280,251,102,130,46,332,82,303,276,193,223,366,382,95,1079,749,1114,546,1652,1505,933,4802,1081,1144],[48,52,33,99,19,67,89,83,71,3,95,43,84,101,55,20,14,54,84,4,231,293,449,150,299,118,0,234,225,128,166,315,254,332,248,200,290,361,262,335,3741,1881,1108,1265,1746,1665,933,5118,3920,4261],[62,21,61,62,22,18,82,22,36,1,107,14,25,28,21,10,20,16,25,6,105,240,197,108,217,231,370,0,102,105,46,178,82,218,203,156,167,419,256,95,1079,749,1518,546,2460,1690,933,1321,1081,1144],[32,68,16,26,7,64,58,85,74,3,90,44,62,71,21,9,7,16,93,2,179,195,382,101,286,59,305,68,0,93,96,88,273,84,74,269,173,118,118,262,3193,2281,509,1294,1955,831,2099,3352,2258,3251],[17,54,55,60,14,66,59,82,60,2,90,52,99,109,61,28,27,38,81,6,227,285,277,135,201,227,351,216,253,0,172,88,281,222,148,304,311,378,453,234,2216,2111,1959,1296,2046,621,3378,3630,3762,3341],[20,76,16,26,7,60,48,48,76,3,81,39,25,85,81,35,7,16,61,2,170,106,380,146,91,59,278,68,379,118,0,88,212,84,74,303,291,118,118,224,3151,1997,509,1812,1180,755,3635,3283,3028,2379],[17,21,62,53,22,18,103,22,55,1,68,14,25,28,21,10,27,51,25,4,187,291,243,95,147,131,217,222,102,45,46,0,82,196,175,251,227,450,438,95,1079,749,1898,546,1488,621,933,4670,1081,1144],[31,56,16,26,7,18,52,47,54,2,91,43,86,68,69,33,7,16,78,2,258,131,238,83,357,59,391,68,364,86,172,88,0,84,74,273,163,118,118,295,3066,2991,509,1758,1558,621,2106,3706,2727,1144],[64,21,45,26,15,18,26,22,47,1,103,14,25,28,21,9,22,40,25,6,191,191,217,127,209,219,331,228,102,159,46,322,82,0,215,185,231,340,329,95,1079,749,1948,546,1252,1604,933,4903,1081,1144],[40,21,43,54,27,18,98,22,51,1,76,14,25,28,21,9,21,56,25,7,159,277,278,86,158,221,341,155,102,155,46,293,82,306,0,238,172,387,408,95,1079,749,1894,546,1317,1623,933,3691,1081,1144],[46,47,52,86,23,51,67,48,69,3,101,50,91,28,77,34,17,54,92,5,184,183,339,122,209,219,337,160,268,105,175,209,244,224,262,0,270,326,293,196,3683,1908,1863,546,2182,2376,2122,5069,3194,4201],[34,81,45,96,25,44,87,45,87,3,66,41,55,88,80,30,27,50,86,5,229,278,431,134,235,184,394,179,342,96,109,335,229,276,240,207,0,422,418,346,4207,2599,2003,1419,2205,1719,1920,4211,2250,2690],[51,21,35,102,22,18,89,22,39,1,100,14,25,28,21,9,25,56,25,5,175,217,287,125,130,188,333,235,102,93,46,321,82,202,185,205,120,0,443,95,1079,749,1826,546,1323,1865,933,4040,1081,1144],[57,21,55,94,20,18,101,22,49,1,102,14,25,28,21,9,19,53,25,6,133,76,270,115,122,170,255,237,102,169,46,341,82,253,181,242,176,401,0,95,1079,749,1725,546,620,1661,933,3884,1081,1144],[39,51,16,26,7,41,56,72,73,1,48,38,71,56,42,20,7,16,65,2,297,180,403,77,343,59,289,68,314,106,148,88,295,84,74,220,303,118,118,0,4003,2832,509,1618,1834,801,2817,3050,1081,3934],[30,59,16,26,7,71,56,69,22,3,81,30,58,100,53,22,7,16,93,2,269,110,406,39,224,59,330,68,312,112,114,88,250,84,74,268,310,118,118,203,0,1621,509,1191,1265,731,2437,2502,4301,3437],[66,42,60,63,7,44,65,82,76,2,72,47,52,95,51,25,20,37,85,4,282,233,290,138,258,152,289,194,215,136,173,198,222,333,155,244,250,311,247,367,3883,0,509,1116,1553,1244,2359,4898,3311,2901],[34,21,59,53,7,18,69,22,34,1,87,14,25,28,21,10,21,38,25,6,114,282,203,103,144,212,305,146,102,163,46,263,82,274,288,248,197,345,386,95,1079,749,0,546,1478,1577,933,3813,1081,1144],[31,79,16,26,7,48,39,68,82,2,49,52,65,28,71,25,7,16,51,2,246,141,234,119,273,59,326,68,251,91,144,88,276,84,74,81,162,118,118,317,3156,1809,509,0,1168,695,2088,2075,3300,4484],[56,21,50,66,27,44,59,70,69,2,68,14,98,77,83,31,20,53,54,7,296,76,324,96,361,139,372,153,391,143,166,214,234,287,292,282,230,448,118,281,2903,1535,1735,1950,0,1453,2050,2992,3561,3020],[17,55,49,91,19,56,96,61,86,3,110,37,72,84,81,18,25,45,98,4,216,191,288,101,228,180,288,166,210,45,158,88,300,305,245,219,234,439,320,254,4226,1565,1108,1476,2213,0,3482,4064,3979,3725],[65,68,44,93,21,67,79,64,82,2,74,46,80,94,72,23,16,57,52,6,169,180,379,116,363,154,119,238,363,142,94,204,269,262,202,292,220,442,335,284,3639,1557,1684,1601,1589,2231,0,4333,2875,4389],[35,61,58,84,22,61,92,76,66,3,83,29,63,73,46,35,16,16,88,6,179,284,396,114,244,134,392,68,270,123,133,261,223,307,220,285,240,427,421,242,3744,2958,1781,2140,2221,1935,2005,0,3944,4044],[34,45,35,66,22,49,66,86,69,1,60,33,63,56,45,18,19,38,99,7,190,196,328,140,293,221,401,236,354,138,171,289,245,174,268,234,244,448,439,95,3378,2026,1415,2067,1961,1471,2879,5141,0,2587],[23,71,16,26,7,18,47,44,61,3,65,31,60,71,58,21,7,16,83,2,204,139,288,136,235,59,405,68,339,66,162,88,82,84,74,248,188,118,118,202,4142,2279,509,1276,2173,678,2433,2869,3017,0],];
precedences = [{},{23},{},{17},{41},{2,33},{},{31},{},{29},{},{},{},{},{},{24},{},{},{},{2,48},{},{},{3},{5,42},{},{},{},{},{},{4,8},{48},{33},{20,27},{},{},{},{},{},{},{},{},{34,10},{},{},{},{},{},{},{},{},];
required_resource = [[0,0,0,1,4,4,0,2],[0,0,0,0,0,0,0,0],[2,0,3,3,0,1,0,0],[0,0,0,0,0,0,0,1],[4,2,4,0,2,0,0,4],[0,0,0,0,0,0,0,0],[0,0,0,0,0,0,0,2],[2,4,3,3,4,4,4,4],[1,1,0,1,1,4,0,2],[0,0,0,0,0,0,0,0],[4,3,1,1,3,4,3,2],[0,0,0,0,0,0,0,0],[1,2,0,3,2,1,4,4],[0,0,0,0,0,0,0,0],[0,0,0,0,0,0,0,0],[3,4,1,2,0,4,1,2],[3,0,3,2,0,3,0,0],[0,0,0,3,0,0,0,0],[0,0,0,0,0,0,0,0],[0,0,2,0,0,0,0,0],[1,0,0,0,0,0,0,0],[4,0,3,0,4,4,4,3],[2,0,0,0,0,0,0,0],[2,2,0,4,1,1,0,3],[3,1,0,2,1,4,4,2],[4,4,0,1,4,4,1,3],[2,0,0,1,3,0,4,2],[0,0,0,2,0,0,0,0],[0,0,0,0,0,0,0,0],[0,0,0,3,3,1,0,1],[0,0,0,0,0,0,0,0],[0,0,0,1,3,4,0,2],[0,0,0,0,0,0,0,0],[0,0,0,0,0,0,0,1],[3,1,3,3,0,3,4,4],[0,3,0,0,0,0,0,1],[0,0,2,1,2,0,1,0],[0,0,2,0,0,0,3,1],[2,0,2,0,3,4,1,4],[0,0,0,0,0,0,0,0],[0,0,0,0,0,0,0,0],[4,4,1,0,1,0,0,1],[4,1,1,0,4,0,0,2],[0,0,0,0,0,0,0,0],[1,0,4,0,1,3,4,1],[0,0,0,2,4,3,0,2],[1,0,0,3,4,0,3,2],[0,0,0,2,0,0,0,0],[1,1,1,1,1,2,0,1],[0,0,0,0,0,0,0,0],];
n_res_periods = [13,19,14,34,13,22,91,15,];
res_period_start = [[0,8186,16372,24558,32744,40930,49116,57302,65488,73674,81860,90046,98232,0,0,0,0,0,0,0,0,0,0,0,0,0,0,0,0,0,0,0,0,0,0,0,0,0,0,0,0,0,0,0,0,0,0,0,0,0,0,0,0,0,0,0,0,0,0,0,0,0,0,0,0,0,0,0,0,0,0,0,0,0,0,0,0,0,0,0,0,0,0,0,0,0,0,0,0,0,0],[0,5539,11078,16617,22156,27695,33234,38773,44312,49851,55390,60929,66468,72007,77546,83085,88624,94163,99702,0,0,0,0,0,0,0,0,0,0,0,0,0,0,0,0,0,0,0,0,0,0,0,0,0,0,0,0,0,0,0,0,0,0,0,0,0,0,0,0,0,0,0,0,0,0,0,0,0,0,0,0,0,0,0,0,0,0,0,0,0,0,0,0,0,0,0,0,0,0,0,0],[0,7608,15216,22824,30432,38040,45648,53256,60864,68472,76080,83688,91296,98904,0,0,0,0,0,0,0,0,0,0,0,0,0,0,0,0,0,0,0,0,0,0,0,0,0,0,0,0,0,0,0,0,0,0,0,0,0,0,0,0,0,0,0,0,0,0,0,0,0,0,0,0,0,0,0,0,0,0,0,0,0,0,0,0,0,0,0,0,0,0,0,0,0,0,0,0,0],[0,2969,5938,8907,11876,14845,17814,20783,23752,26721,29690,32659,35628,38597,41566,44535,47504,50473,53442,56411,59380,62349,65318,68287,71256,74225,77194,80163,83132,86101,89070,92039,95008,97977,0,0,0,0,0,0,0,0,0,0,0,0,0,0,0,0,0,0,0,0,0,0,0,0,0,0,0,0,0,0,0,0,0,0,0,0,0,0,0,0,0,0,0,0,0,0,0,0,0,0,0,0,0,0,0,0,0],[0,7980,15960,23940,31920,39900,47880,55860,63840,71820,79800,87780,95760,0,0,0,0,0,0,0,0,0,0,0,0,0,0,0,0,0,0,0,0,0,0,0,0,0,0,0,0,0,0,0,0,0,0,0,0,0,0,0,0,0,0,0,0,0,0,0,0,0,0,0,0,0,0,0,0,0,0,0,0,0,0,0,0,0,0,0,0,0,0,0,0,0,0,0,0,0,0],[0,4648,9296,13944,18592,23240,27888,32536,37184,41832,46480,51128,55776,60424,65072,69720,74368,79016,83664,88312,92960,97608,0,0,0,0,0,0,0,0,0,0,0,0,0,0,0,0,0,0,0,0,0,0,0,0,0,0,0,0,0,0,0,0,0,0,0,0,0,0,0,0,0,0,0,0,0,0,0,0,0,0,0,0,0,0,0,0,0,0,0,0,0,0,0,0,0,0,0,0,0],[0,1110,2220,3330,4440,5550,6660,7770,8880,9990,11100,12210,13320,14430,15540,16650,17760,18870,19980,21090,22200,23310,24420,25530,26640,27750,28860,29970,31080,32190,33300,34410,35520,36630,37740,38850,39960,41070,42180,43290,44400,45510,46620,47730,48840,49950,51060,52170,53280,54390,55500,56610,57720,58830,59940,61050,62160,63270,64380,65490,66600,67710,68820,69930,71040,72150,73260,74370,75480,76590,77700,78810,79920,81030,82140,83250,84360,85470,86580,87690,88800,89910,91020,92130,93240,94350,95460,96570,97680,98790,99900],[0,7076,14152,21228,28304,35380,42456,49532,56608,63684,70760,77836,84912,91988,99064,0,0,0,0,0,0,0,0,0,0,0,0,0,0,0,0,0,0,0,0,0,0,0,0,0,0,0,0,0,0,0,0,0,0,0,0,0,0,0,0,0,0,0,0,0,0,0,0,0,0,0,0,0,0,0,0,0,0,0,0,0,0,0,0,0,0,0,0,0,0,0,0,0,0,0,0],];
res_period_end = [[8186,16372,24558,32744,40930,49116,57302,65488,73674,81860,90046,98232,100000,0,0,0,0,0,0,0,0,0,0,0,0,0,0,0,0,0,0,0,0,0,0,0,0,0,0,0,0,0,0,0,0,0,0,0,0,0,0,0,0,0,0,0,0,0,0,0,0,0,0,0,0,0,0,0,0,0,0,0,0,0,0,0,0,0,0,0,0,0,0,0,0,0,0,0,0,0,0],[5539,11078,16617,22156,27695,33234,38773,44312,49851,55390,60929,66468,72007,77546,83085,88624,94163,99702,100000,0,0,0,0,0,0,0,0,0,0,0,0,0,0,0,0,0,0,0,0,0,0,0,0,0,0,0,0,0,0,0,0,0,0,0,0,0,0,0,0,0,0,0,0,0,0,0,0,0,0,0,0,0,0,0,0,0,0,0,0,0,0,0,0,0,0,0,0,0,0,0,0],[7608,15216,22824,30432,38040,45648,53256,60864,68472,76080,83688,91296,98904,100000,0,0,0,0,0,0,0,0,0,0,0,0,0,0,0,0,0,0,0,0,0,0,0,0,0,0,0,0,0,0,0,0,0,0,0,0,0,0,0,0,0,0,0,0,0,0,0,0,0,0,0,0,0,0,0,0,0,0,0,0,0,0,0,0,0,0,0,0,0,0,0,0,0,0,0,0,0],[2969,5938,8907,11876,14845,17814,20783,23752,26721,29690,32659,35628,38597,41566,44535,47504,50473,53442,56411,59380,62349,65318,68287,71256,74225,77194,80163,83132,86101,89070,92039,95008,97977,100000,0,0,0,0,0,0,0,0,0,0,0,0,0,0,0,0,0,0,0,0,0,0,0,0,0,0,0,0,0,0,0,0,0,0,0,0,0,0,0,0,0,0,0,0,0,0,0,0,0,0,0,0,0,0,0,0,0],[7980,15960,23940,31920,39900,47880,55860,63840,71820,79800,87780,95760,100000,0,0,0,0,0,0,0,0,0,0,0,0,0,0,0,0,0,0,0,0,0,0,0,0,0,0,0,0,0,0,0,0,0,0,0,0,0,0,0,0,0,0,0,0,0,0,0,0,0,0,0,0,0,0,0,0,0,0,0,0,0,0,0,0,0,0,0,0,0,0,0,0,0,0,0,0,0,0],[4648,9296,13944,18592,23240,27888,32536,37184,41832,46480,51128,55776,60424,65072,69720,74368,79016,83664,88312,92960,97608,100000,0,0,0,0,0,0,0,0,0,0,0,0,0,0,0,0,0,0,0,0,0,0,0,0,0,0,0,0,0,0,0,0,0,0,0,0,0,0,0,0,0,0,0,0,0,0,0,0,0,0,0,0,0,0,0,0,0,0,0,0,0,0,0,0,0,0,0,0,0],[1110,2220,3330,4440,5550,6660,7770,8880,9990,11100,12210,13320,14430,15540,16650,17760,18870,19980,21090,22200,23310,24420,25530,26640,27750,28860,29970,31080,32190,33300,34410,35520,36630,37740,38850,39960,41070,42180,43290,44400,45510,46620,47730,48840,49950,51060,52170,53280,54390,55500,56610,57720,58830,59940,61050,62160,63270,64380,65490,66600,67710,68820,69930,71040,72150,73260,74370,75480,76590,77700,78810,79920,81030,82140,83250,84360,85470,86580,87690,88800,89910,91020,92130,93240,94350,95460,96570,97680,98790,99900,100000],[7076,14152,21228,28304,35380,42456,49532,56608,63684,70760,77836,84912,91988,99064,100000,0,0,0,0,0,0,0,0,0,0,0,0,0,0,0,0,0,0,0,0,0,0,0,0,0,0,0,0,0,0,0,0,0,0,0,0,0,0,0,0,0,0,0,0,0,0,0,0,0,0,0,0,0,0,0,0,0,0,0,0,0,0,0,0,0,0,0,0,0,0,0,0,0,0,0,0],];
res_period_capacity = [[22,20,18,0,0,19,15,0,12,13,15,16,16,0,0,0,0,0,0,0,0,0,0,0,0,0,0,0,0,0,0,0,0,0,0,0,0,0,0,0,0,0,0,0,0,0,0,0,0,0,0,0,0,0,0,0,0,0,0,0,0,0,0,0,0,0,0,0,0,0,0,0,0,0,0,0,0,0,0,0,0,0,0,0,0,0,0,0,0,0,0],[6,10,10,13,15,13,11,14,15,15,17,20,21,18,20,20,22,22,21,0,0,0,0,0,0,0,0,0,0,0,0,0,0,0,0,0,0,0,0,0,0,0,0,0,0,0,0,0,0,0,0,0,0,0,0,0,0,0,0,0,0,0,0,0,0,0,0,0,0,0,0,0,0,0,0,0,0,0,0,0,0,0,0,0,0,0,0,0,0,0,0],[18,17,19,17,17,14,15,15,0,15,13,13,11,14,0,0,0,0,0,0,0,0,0,0,0,0,0,0,0,0,0,0,0,0,0,0,0,0,0,0,0,0,0,0,0,0,0,0,0,0,0,0,0,0,0,0,0,0,0,0,0,0,0,0,0,0,0,0,0,0,0,0,0,0,0,0,0,0,0,0,0,0,0,0,0,0,0,0,0,0,0],[8,10,12,14,16,18,16,16,18,16,14,12,10,12,13,15,15,15,17,0,19,19,20,21,21,21,19,0,20,20,18,18,19,17,0,0,0,0,0,0,0,0,0,0,0,0,0,0,0,0,0,0,0,0,0,0,0,0,0,0,0,0,0,0,0,0,0,0,0,0,0,0,0,0,0,0,0,0,0,0,0,0,0,0,0,0,0,0,0,0,0],[9,10,10,8,11,11,0,10,13,0,12,14,13,0,0,0,0,0,0,0,0,0,0,0,0,0,0,0,0,0,0,0,0,0,0,0,0,0,0,0,0,0,0,0,0,0,0,0,0,0,0,0,0,0,0,0,0,0,0,0,0,0,0,0,0,0,0,0,0,0,0,0,0,0,0,0,0,0,0,0,0,0,0,0,0,0,0,0,0,0,0],[8,11,11,12,15,16,14,16,14,14,0,13,0,16,16,15,15,13,0,12,10,10,0,0,0,0,0,0,0,0,0,0,0,0,0,0,0,0,0,0,0,0,0,0,0,0,0,0,0,0,0,0,0,0,0,0,0,0,0,0,0,0,0,0,0,0,0,0,0,0,0,0,0,0,0,0,0,0,0,0,0,0,0,0,0,0,0,0,0,0,0],[7,8,12,15,0,16,17,14,15,13,14,15,15,18,19,16,17,18,16,14,16,0,0,17,0,17,16,18,0,16,14,14,16,19,18,0,18,19,0,19,21,22,22,18,17,16,13,15,18,19,17,0,19,19,21,17,18,16,17,0,19,16,18,17,15,14,14,11,12,16,16,19,20,17,17,17,14,13,16,13,15,18,15,14,17,14,15,15,0,0,12],[20,17,18,18,15,17,15,15,15,14,17,19,19,20,21,0,0,0,0,0,0,0,0,0,0,0,0,0,0,0,0,0,0,0,0,0,0,0,0,0,0,0,0,0,0,0,0,0,0,0,0,0,0,0,0,0,0,0,0,0,0,0,0,0,0,0,0,0,0,0,0,0,0,0,0,0,0,0,0,0,0,0,0,0,0,0,0,0,0,0,0],];
