n_jobs = 10;
n_machines = 3;
n_resources = 1;
max_periods = 12;
processing = [47,37,57,30,224,184,63,191,1997,2870];
due = [2,188,52,0,973,422,631,2602,4387,3189];
initial_setup = [25,20,6,7,115,109,39,102,1437,1094];
eligible = [{1,2},{1},{1,3},{1,3},{1,3},{2},{1},{2},{1,3},{1,2,3},];
setup = [[0,31,9,20,360,179,240,149,1772,1398],[69,0,6,42,329,49,211,65,2947,2323],[68,26,0,59,417,49,260,65,4017,3855],[18,24,11,0,334,49,216,65,4444,1398],[39,22,9,71,0,49,200,65,4088,3415],[18,9,3,20,105,0,67,203,1162,1748],[41,26,8,79,349,49,0,65,2984,2768],[18,9,3,20,105,148,67,0,1162,2083],[41,29,8,51,288,49,164,65,0,4785],[18,22,9,20,417,111,201,149,3870,0],];
precedences = [{},{},{7},{},{8},{},{},{7},{},{},];
required_resource = [[4],[1],[1],[1],[2],[0],[3],[0],[2],[3],];
n_res_periods = [12,];
res_period_start = [[0,1709,3418,5127,6836,8545,10254,11963,13672,15381,17090,18799],];
res_period_end = [[1709,3418,5127,6836,8545,10254,11963,13672,15381,17090,18799,20000],];
res_period_capacity = [[11,15,15,13,11,11,9,11,15,0,0,14],];
