n_jobs = 50;
n_machines = 5;
n_resources = 5;
max_periods = 28;
processing = [46,57,57,53,36,54,49,23,46,35,51,48,17,27,27,57,59,44,59,59,178,62,171,207,104,208,224,238,227,212,224,178,190,170,187,198,162,222,136,172,2434,2470,1789,2344,1604,1652,2784,1792,566,2858];
due = [10,60,8,38,64,1059,10,4792,142,119,340,205,136,443,259,12494,229,384,199,190,310,869,387,8034,79,1248,1161,750,297,617,1276,2520,1772,2596,1785,6997,6961,12767,1701,1342,12292,15157,11545,13534,1883,2463,5200,2373,4757,2037];
initial_setup = [27,29,25,19,8,27,26,29,20,2,12,29,19,4,24,21,28,24,23,27,50,80,107,100,116,107,113,68,84,109,94,62,114,109,117,83,71,37,66,105,540,834,1174,1405,932,398,1043,735,536,1301];
eligible = [{1,2,3,4,5},{1,2,3,4,5},{3,4},{4,5},{4},{1,2,3,4,5},{1,3,4,5},{1,5},{1,2,3,4,5},{2},{3},{1,2,3,4,5},{3},{3},{1,2,3},{1,2,3,4,5},{1,2,3,4,5},{3,4},{2,4},{1,2,3,4,5},{3,4},{4},{2,5},{1,2,3,4,5},{1},{1,4,5},{1,2,4,5},{3,5},{1,3,4,5},{2,4,5},{1,2,3,4},{1,4},{1,2,3,5},{1,2,3},{1,2,3,4},{1,2,5},{3},{3},{3,4,5},{1,4},{1,2},{4,5},{1,2,4,5},{1,2,3,4,5},{1,4},{3,4},{2,3,4},{3,4,5},{3},{1,2,3,4,5},];
setup = [[0,60,67,54,0,86,41,39,63,35,93,67,78,9,81,87,69,51,54,106,191,178,188,348,82,195,318,305,332,295,431,425,285,279,343,192,358,199,336,350,3321,3739,2536,5170,503,2476,3050,3547,501,3180],[89,0,51,94,0,79,57,61,77,11,94,84,68,8,104,62,85,79,71,96,229,175,83,427,172,189,321,247,394,371,396,330,264,90,338,244,435,168,368,342,3659,2565,2840,3586,1979,1994,2999,3304,444,4162],[28,88,0,66,0,26,50,16,56,11,84,56,21,7,74,43,70,23,20,57,187,289,83,334,82,120,242,218,350,270,346,110,168,332,276,71,236,58,358,308,1046,2780,1275,2967,503,3457,3085,3251,490,3553],[71,45,56,0,0,52,59,50,57,11,27,59,21,3,27,81,65,61,29,46,290,74,140,259,82,93,92,92,281,306,151,160,201,90,286,229,117,58,279,403,1046,3773,2399,4759,503,1105,1395,2256,210,4662],[28,67,71,61,0,28,40,16,69,11,27,30,21,3,27,67,42,63,20,28,333,216,83,118,82,62,190,92,379,297,136,162,91,90,99,71,117,58,265,409,1046,3211,1745,2647,503,941,1267,3431,210,2070],[97,66,50,79,0,0,51,16,90,24,71,82,57,3,100,82,59,72,43,94,265,206,315,375,293,171,330,191,383,414,117,418,269,346,358,204,361,146,382,361,2506,2301,2498,3591,1073,3659,3102,2929,802,5506],[67,91,81,58,0,87,0,56,52,11,71,70,58,9,64,67,73,50,23,83,211,247,114,363,291,188,365,245,302,302,424,227,307,262,233,71,241,188,332,316,3448,2742,2127,3854,1981,2423,2845,2706,471,4076],[108,48,23,29,0,26,53,0,30,11,27,62,21,3,27,62,55,23,20,77,86,74,119,301,267,241,257,121,270,331,117,355,332,301,239,199,117,58,248,308,4075,2151,2496,3030,1338,941,1267,2119,210,2657],[68,67,91,87,0,77,70,38,0,33,74,90,73,8,93,69,83,52,20,71,207,204,291,337,223,143,286,277,292,114,318,405,331,352,279,164,455,154,346,366,4116,2401,2958,4819,1775,3712,3089,2324,729,3565],[28,23,23,25,0,26,18,16,88,0,27,28,21,3,88,52,24,23,67,28,86,74,83,204,82,62,160,92,107,360,237,107,180,90,309,257,117,58,98,112,2944,1055,1808,4215,503,941,2673,940,210,4086],[28,55,23,25,0,26,22,16,52,11,0,71,46,7,45,53,63,23,20,101,142,74,83,135,82,62,92,357,180,114,414,107,190,279,264,71,409,215,124,112,1046,1055,1008,1323,503,2199,2645,1802,781,3557],[103,77,90,90,0,73,71,48,77,40,68,0,73,7,63,84,74,88,69,28,86,236,268,453,256,170,292,259,421,433,319,254,290,204,284,215,446,223,350,353,3362,3685,1008,1323,1488,3102,4173,940,210,3953],[28,72,23,25,0,26,21,16,48,11,87,96,0,11,40,36,46,23,20,108,90,74,83,118,82,62,92,286,218,114,374,107,264,234,218,71,418,58,124,112,1046,1055,1008,1323,503,2869,4442,2049,682,3208],[28,49,23,25,0,26,18,16,43,11,57,67,66,0,43,51,39,23,20,81,98,74,83,118,82,62,92,269,244,114,117,107,247,265,237,71,397,224,165,112,1046,1055,1008,1323,503,2045,4312,2474,518,3905],[64,61,23,25,0,79,41,24,85,37,54,65,46,6,0,55,94,23,53,105,103,74,318,321,246,178,211,92,252,390,424,386,91,243,249,158,117,164,220,325,3800,1055,2898,4548,1077,3392,4767,1531,699,4648],[71,72,88,96,0,88,48,36,52,30,101,107,53,8,75,0,82,75,75,80,239,286,266,332,251,229,220,298,107,317,409,264,324,239,382,242,248,143,268,380,1046,1055,3687,4177,1968,941,4391,3739,692,4275],[81,53,66,85,0,88,52,52,83,38,78,59,73,11,68,66,0,59,60,84,343,262,226,271,269,231,356,213,292,428,422,107,319,338,280,258,240,168,349,328,3555,3333,3662,4605,1063,3206,2570,3716,782,5184],[28,65,23,54,0,26,51,16,54,11,61,89,21,9,69,53,46,0,26,105,200,263,83,259,82,114,216,304,327,217,415,167,257,265,282,71,402,58,352,261,1046,4002,2277,1741,521,2321,3061,2163,810,2983],[28,86,90,70,0,31,36,16,26,24,27,43,21,3,97,53,69,58,0,28,262,150,322,196,82,79,203,92,343,114,245,119,165,163,341,135,117,58,310,386,2485,2565,1770,4250,503,1083,2386,2572,210,5173],[70,62,63,94,0,93,62,50,76,28,105,28,67,9,60,59,61,87,69,0,86,168,255,342,259,225,339,306,316,372,352,384,315,235,314,279,313,230,308,321,2663,2665,1008,1323,1745,2869,3562,940,210,4526],[28,88,67,59,0,34,36,16,48,11,89,28,46,11,47,73,76,61,24,28,0,196,83,306,82,73,199,366,408,213,235,192,221,261,294,71,254,141,325,329,1046,2785,1008,1323,503,1976,3714,940,210,3608],[28,84,66,25,0,33,52,16,70,11,27,51,21,3,27,57,46,73,23,28,332,0,83,218,82,131,92,92,317,215,117,175,91,90,210,71,117,58,263,333,1046,2907,1893,1857,503,941,1344,3272,210,1527],[89,23,23,37,0,95,18,63,92,11,27,39,21,3,85,76,25,23,75,51,86,74,0,229,82,113,171,139,107,335,273,107,318,90,262,194,117,58,241,112,2336,2193,2560,4317,503,941,2107,2634,210,4738],[103,63,49,75,0,92,52,36,81,43,65,106,54,10,78,100,52,60,74,65,193,170,303,0,299,62,287,306,293,420,441,233,291,284,99,187,330,134,235,307,3925,4027,2294,4503,1250,3274,3693,2182,755,3840],[28,28,23,25,0,81,63,39,26,11,27,55,21,3,27,45,92,23,20,81,86,74,83,283,0,183,220,92,334,114,379,422,239,275,353,183,117,58,98,394,3282,1055,1008,1323,503,941,1267,940,210,1665],[86,80,64,53,0,87,68,53,42,11,27,54,21,3,27,93,76,50,28,60,180,176,165,118,215,0,353,106,269,314,249,300,351,205,99,281,117,58,383,258,2667,4103,2463,3593,1138,941,1267,2375,210,2912],[80,69,74,25,0,99,43,49,83,24,27,54,21,3,88,107,94,78,51,63,339,74,234,319,168,197,0,96,394,421,390,405,251,250,368,231,117,58,349,260,3210,3722,2673,3380,1442,1183,2182,3009,210,4822],[95,48,23,25,0,73,19,49,54,11,80,89,72,7,27,94,63,23,20,77,132,74,93,132,82,145,149,0,191,259,270,107,91,344,248,257,117,123,293,112,1046,2542,3875,2444,503,3436,4432,2979,701,4568],[101,76,55,69,0,90,65,58,56,11,70,86,50,9,45,29,67,73,21,109,182,198,100,435,189,173,347,251,0,329,310,373,333,358,305,167,240,225,261,383,1046,1055,2786,2813,1839,941,3431,2232,550,4603],[103,77,58,95,0,58,59,40,26,32,27,55,21,3,79,70,78,57,20,66,236,242,285,304,82,134,263,92,394,0,164,119,322,228,271,241,117,58,235,340,3122,2451,2857,4577,503,1208,2161,3674,210,4878],[67,80,74,69,0,26,52,16,83,28,96,90,75,3,91,51,67,72,77,76,328,185,230,424,256,245,335,357,393,433,0,405,274,289,368,140,384,181,350,331,2442,2973,2829,2895,1969,2091,2675,3326,516,5152],[39,66,88,71,0,52,41,29,47,11,27,47,21,3,27,63,24,67,23,43,258,265,83,423,245,217,326,92,405,246,379,0,300,245,296,138,117,58,342,334,2978,3252,2116,2584,1685,941,1480,2136,210,1875],[68,77,23,25,0,75,63,49,93,42,93,59,63,11,27,75,69,23,70,102,94,74,257,460,318,204,192,92,252,310,439,343,0,299,304,224,117,230,262,372,3601,2340,3606,4648,1835,2365,3012,2371,507,5448],[53,23,23,25,0,94,56,40,87,11,81,107,63,7,94,49,64,23,49,67,130,74,83,238,230,156,329,200,349,307,434,241,195,0,307,227,269,203,227,227,3320,1055,1660,5170,1443,2126,3307,2555,673,3879],[41,89,79,98,0,86,63,34,96,28,90,72,75,9,81,70,72,51,70,77,286,267,219,118,262,62,278,354,426,331,328,379,264,224,0,206,370,168,284,394,3234,3690,2904,3255,1830,3682,4345,2235,829,4444],[68,49,23,30,0,102,18,32,83,42,27,62,21,3,75,80,51,23,49,58,86,74,171,437,194,192,224,92,184,291,430,263,274,285,206,0,117,58,179,373,4062,2161,2758,4988,1320,941,2619,2547,210,4468],[28,47,23,25,0,26,18,16,52,11,89,63,79,11,27,45,41,23,20,94,86,74,83,118,82,62,92,92,246,114,263,107,91,217,178,71,0,174,124,112,1046,1055,1008,1323,503,3544,4281,1827,509,3365],[28,53,23,25,0,26,18,16,37,11,107,56,21,7,48,57,39,23,20,85,87,74,83,136,82,62,92,294,205,114,350,107,260,327,216,71,364,0,154,112,1046,1055,1008,1323,503,3352,2727,1667,713,3758],[83,78,69,55,0,79,36,57,76,11,94,68,54,11,57,74,74,78,24,80,254,233,131,348,82,99,190,257,216,274,249,170,338,190,207,176,439,135,0,378,1046,2762,2871,2784,503,3296,2557,3233,590,4977],[59,64,72,84,0,54,57,30,46,11,27,45,21,3,27,43,75,47,29,76,253,212,83,346,314,222,334,92,287,251,413,333,265,156,274,183,117,58,214,0,4147,3586,1858,2714,1508,972,1981,3475,210,2349],[45,32,23,25,0,62,67,34,86,36,27,50,21,3,54,29,55,23,44,58,86,74,189,394,305,130,231,92,107,309,305,266,253,269,372,179,117,58,98,214,0,1055,2653,3380,1587,941,1679,940,210,3174],[71,44,57,85,0,81,55,46,61,11,27,58,21,3,27,29,47,90,20,42,252,148,152,318,82,156,211,98,107,451,159,117,353,90,295,178,117,58,354,246,1046,0,2407,4751,503,941,1444,2915,210,4595],[85,82,87,54,0,92,58,62,52,23,27,28,21,3,103,62,65,85,45,28,86,219,310,455,175,238,355,135,407,392,387,371,286,233,328,224,117,58,340,359,2492,3996,0,1323,1028,941,2348,940,210,4295],[64,60,54,52,0,87,56,45,87,40,92,28,75,6,59,76,53,54,42,28,86,174,331,469,173,172,328,238,282,420,414,286,256,303,321,260,236,214,280,404,3485,3081,1008,0,1698,2160,3772,940,210,4957],[28,60,66,89,0,78,37,40,67,11,27,57,21,3,27,57,82,48,21,76,338,283,83,372,82,164,356,92,311,221,395,301,234,227,279,116,117,58,198,272,2734,3124,2160,2454,0,951,1598,3140,210,2075],[28,56,81,81,0,26,32,16,54,11,76,102,69,9,43,29,59,84,20,101,260,211,83,310,82,106,286,188,107,293,368,140,232,315,290,71,281,119,348,383,1046,1055,2040,3165,503,0,3927,3332,558,2976],[28,61,69,84,0,35,57,16,70,23,90,76,53,6,78,44,55,90,62,97,239,229,275,313,82,101,336,194,237,318,277,123,236,342,260,207,354,185,334,393,2249,3216,2773,4631,503,3690,0,2683,773,4994],[62,68,49,56,0,74,50,45,49,11,54,28,68,9,61,108,61,58,20,28,86,186,133,269,82,177,298,272,228,446,310,193,311,243,267,216,280,218,330,225,1046,2609,1008,1323,503,2399,2670,0,210,4441],[28,65,23,25,0,26,18,16,55,11,100,28,70,11,72,49,47,23,20,28,86,74,83,118,82,62,92,275,244,114,326,107,176,306,307,71,360,188,220,112,1046,1055,1008,1323,503,3488,4066,940,0,2830],[97,70,52,96,0,96,48,55,92,28,65,69,71,9,72,87,94,51,41,77,293,236,288,457,188,229,287,276,405,380,360,414,282,243,293,236,407,202,329,430,3972,3875,3413,4946,1592,2645,3547,2522,536,0],];
precedences = [{},{},{},{},{},{33},{},{47,23},{},{},{},{},{},{},{},{33,46},{},{},{},{},{},{},{},{46},{},{},{},{23},{},{},{},{9},{},{},{},{38},{39},{42},{21},{},{},{19,17},{32},{48},{},{8},{},{8},{},{},];
required_resource = [[0,3,0,2,2],[2,0,0,0,0],[0,0,0,0,0],[0,0,0,0,0],[0,0,0,0,0],[3,1,3,3,1],[4,4,3,2,1],[3,1,4,4,3],[3,1,2,0,2],[0,0,0,0,0],[0,0,0,0,0],[4,4,1,1,0],[0,0,0,0,0],[0,0,0,0,0],[3,3,4,1,3],[4,2,1,0,2],[3,2,4,3,3],[0,0,0,0,0],[0,0,0,0,0],[3,2,3,1,0],[0,0,0,0,0],[0,0,0,0,0],[0,0,0,0,0],[1,0,0,1,0],[0,2,0,4,2],[3,0,0,3,0],[0,0,3,4,0],[0,0,0,0,0],[1,4,2,0,1],[0,0,0,0,0],[2,1,2,3,1],[2,2,2,3,3],[1,4,4,2,4],[1,0,0,0,0],[3,0,0,4,0],[3,1,3,1,2],[0,0,0,0,0],[0,0,0,0,0],[0,0,0,0,0],[1,4,0,1,0],[1,3,2,0,4],[0,0,0,0,0],[2,4,3,1,0],[3,3,1,1,0],[0,1,0,3,1],[0,0,0,0,0],[0,0,0,0,0],[0,0,0,0,0],[0,0,0,0,0],[0,4,0,0,2],];
n_res_periods = [11,13,15,12,28,];
res_period_start = [[0,9813,19626,29439,39252,49065,58878,68691,78504,88317,98130,0,0,0,0,0,0,0,0,0,0,0,0,0,0,0,0,0],[0,7667,15334,23001,30668,38335,46002,53669,61336,69003,84337,92004,99671,0,0,0,0,0,0,0,0,0,0,0,0,0,0,0],[0,6927,13854,20781,27708,34635,41562,48489,55416,62343,69270,76197,83124,90051,96978,0,0,0,0,0,0,0,0,0,0,0,0,0],[0,8930,17860,26790,35720,44650,53580,62510,71440,80370,89300,98230,0,0,0,0,0,0,0,0,0,0,0,0,0,0,0,0],[0,3681,7362,11043,14724,18405,22086,25767,29448,33129,36810,40491,44172,47853,51534,55215,58896,62577,66258,69939,73620,77301,80982,84663,88344,92025,95706,99387],];
res_period_end = [[9813,19626,29439,39252,49065,58878,68691,78504,88317,98130,100000,0,0,0,0,0,0,0,0,0,0,0,0,0,0,0,0,0],[7667,15334,23001,30668,38335,46002,53669,61336,69003,84337,92004,99671,100000,0,0,0,0,0,0,0,0,0,0,0,0,0,0,0],[6927,13854,20781,27708,34635,41562,48489,55416,62343,69270,76197,83124,90051,96978,100000,0,0,0,0,0,0,0,0,0,0,0,0,0],[8930,17860,26790,35720,44650,53580,62510,71440,80370,89300,98230,100000,0,0,0,0,0,0,0,0,0,0,0,0,0,0,0,0],[3681,7362,11043,14724,18405,22086,25767,29448,33129,36810,40491,44172,47853,51534,55215,58896,62577,66258,69939,73620,77301,80982,84663,88344,92025,95706,99387,100000],];
res_period_capacity = [[23,19,17,0,15,15,17,18,17,19,19,0,0,0,0,0,0,0,0,0,0,0,0,0,0,0,0,0],[19,20,16,16,15,14,12,0,12,12,13,0,16,0,0,0,0,0,0,0,0,0,0,0,0,0,0,0],[17,20,19,0,0,19,16,14,17,14,16,0,0,0,15,0,0,0,0,0,0,0,0,0,0,0,0,0],[15,15,17,18,0,0,19,19,20,22,22,20,0,0,0,0,0,0,0,0,0,0,0,0,0,0,0,0],[19,18,15,15,15,15,12,10,14,13,11,12,13,10,0,12,13,11,9,8,7,6,10,8,11,0,11,0],];
