n_jobs = 50;
n_machines = 5;
n_resources = 8;
max_periods = 41;
processing = [53,48,15,27,53,48,34,49,9,50,45,16,49,54,32,31,56,59,53,44,218,138,155,220,153,115,186,231,179,108,187,150,181,190,238,185,228,186,199,189,2042,2391,2688,2825,2177,2223,1882,2364,1724,631];
due = [29,9251,37,7308,19,78,7711,5485,8610,56,43,129,78,245,210,62,521,226,7033,10977,960,313,1028,9703,1030,1167,2495,493,1389,126,1649,830,1253,457,12781,726,8229,3281,8436,15932,12113,10893,794,12043,4669,13694,8976,15650,13052,16767];
initial_setup = [18,9,10,16,27,20,4,23,17,18,24,28,27,29,16,11,21,13,29,27,94,45,113,78,101,81,39,107,49,112,41,60,116,62,91,103,113,66,61,37,975,1438,1429,958,1175,695,565,1421,620,857];
eligible = [{1,2,3,4,5},{2},{1},{2,3,4},{1,2},{1,2,3,4,5},{5},{1,2,3,4,5},{2},{1,2,3,4},{1,2,4,5},{1,5},{1,2,3,5},{1,5},{1,2,4},{2,4},{5},{1,2,4},{1,2,3,4},{4,5},{2,3,5},{2},{1,2,3,5},{3,5},{3,5},{5},{5},{1,2,3,4,5},{4},{2,3,5},{3},{3},{1,2,3,5},{1,3,4,5},{1,3,4,5},{1,2,3,4,5},{1,4},{1,3},{2},{3},{4},{2,3,4},{1,2},{1,3,4,5},{1,2,3,4,5},{4},{1,2,5},{1,3,4},{2,5},{3},];
setup = [[0,48,56,74,91,81,6,52,91,60,96,84,71,97,69,42,14,22,84,45,305,151,269,245,55,250,315,444,437,226,222,191,351,279,377,291,316,278,31,112,2690,3450,4122,4236,2918,3028,2572,2024,3909,428],[28,0,16,28,77,31,3,23,99,60,61,27,22,28,65,19,7,83,26,22,301,187,79,79,55,119,83,135,113,178,93,95,148,106,119,157,101,93,100,55,1292,3878,2162,1343,2072,1200,1739,799,2341,205],[90,24,0,28,44,82,3,36,27,50,70,92,65,62,24,17,7,48,59,22,119,57,160,79,55,119,83,305,113,86,93,95,287,169,136,110,365,187,31,55,1292,1309,2999,2963,1010,1200,905,943,1416,205],[40,82,16,0,57,101,3,52,102,59,99,27,35,28,88,35,7,86,77,72,306,163,95,79,160,119,83,352,375,282,349,361,327,164,354,372,185,173,86,137,4651,1309,1309,1343,2594,2664,1566,3101,2348,741],[81,52,42,28,0,60,3,41,89,57,69,89,38,72,50,26,7,77,64,22,196,57,235,79,55,119,83,200,113,170,93,95,353,189,150,193,387,297,111,55,1292,3035,2837,4599,3812,1200,2323,1079,2294,205],[103,89,41,87,86,0,6,73,94,24,105,59,54,85,51,35,14,70,91,69,404,150,288,207,126,432,183,407,354,217,368,318,400,265,325,310,226,257,77,126,3155,4233,3764,4948,3846,4466,3116,2567,5164,687],[58,24,16,28,25,37,0,34,27,24,29,27,19,97,24,17,18,22,26,22,260,57,87,193,107,341,274,335,113,254,93,95,144,217,211,156,101,93,31,55,1292,1309,1309,4437,2695,1200,1948,799,3931,205],[90,66,51,76,97,82,10,0,55,62,92,56,38,92,83,49,16,60,69,44,267,116,292,224,172,274,246,444,286,187,295,215,298,225,388,246,274,349,89,113,3009,3921,4302,4855,2390,3241,2925,799,4894,741],[28,68,16,28,81,44,3,23,0,78,29,27,19,28,78,25,7,50,26,22,119,146,79,79,55,119,83,116,113,130,93,95,196,106,119,128,101,93,71,55,1292,2567,1351,1343,1941,1200,2146,799,2765,205],[106,93,57,59,50,27,3,79,56,0,99,100,57,73,52,67,7,68,99,79,399,120,211,174,177,119,83,303,417,251,287,362,398,209,405,357,309,187,80,145,3545,4218,4335,3380,3245,3819,2498,3026,1556,699],[56,86,32,50,89,103,11,88,27,68,0,70,45,65,89,43,25,57,26,85,119,120,79,201,87,435,251,339,328,230,93,95,389,106,459,155,247,294,98,55,4370,4153,4038,4709,3457,3458,2517,2262,2978,205],[98,24,40,28,44,62,8,45,27,46,91,0,64,28,24,17,17,78,75,22,229,57,266,305,106,418,83,322,113,339,93,95,419,265,119,154,392,225,31,55,1292,1309,3435,4187,3222,1200,3564,799,3893,205],[108,52,48,105,77,94,9,55,85,73,98,103,0,85,91,28,19,86,81,22,420,129,214,259,191,242,202,393,113,304,319,301,424,269,383,336,307,368,98,128,1292,2724,3205,3761,3247,1200,2491,1664,5580,205],[101,24,53,28,25,60,8,56,27,35,77,27,53,0,24,17,27,75,55,22,218,57,161,303,78,303,83,311,113,286,93,95,290,283,119,119,215,273,31,55,1292,1309,4711,4519,3039,1200,3254,799,5287,205],[83,69,42,30,87,89,3,83,82,85,113,89,71,106,0,53,7,78,84,87,238,201,158,79,55,119,83,336,261,210,93,95,274,177,353,219,293,93,77,55,2965,3099,4050,2601,3792,4547,2648,2826,2769,205],[40,83,16,43,93,87,3,84,94,78,69,27,31,28,70,0,7,73,92,83,205,147,115,79,55,119,83,224,228,112,93,95,193,251,330,267,143,93,63,55,3447,3227,1402,1343,1010,4079,2385,2750,1937,205],[53,24,16,28,25,31,9,30,27,24,29,27,19,71,24,17,0,22,26,22,204,57,121,221,139,260,290,449,113,177,93,95,203,397,354,113,101,93,31,55,1292,1309,1309,1343,2194,1200,2683,799,3178,205],[28,65,54,53,66,79,3,82,81,71,92,56,53,89,70,63,7,0,87,80,321,209,237,79,55,119,83,238,381,114,93,95,405,179,468,218,278,287,31,55,3305,5112,4589,3564,2541,3652,2652,2102,1995,205],[77,51,56,109,96,95,3,71,27,59,29,65,56,77,92,43,7,76,0,69,119,204,79,277,143,119,83,318,406,164,93,363,328,106,360,394,388,252,65,147,5159,3778,3663,3950,3209,3578,2512,2380,2441,535],[68,24,16,41,25,74,8,89,27,47,29,27,19,72,24,39,22,28,101,0,231,57,123,184,99,321,236,116,389,86,93,95,180,317,450,233,219,93,31,55,2591,3233,1309,4557,3823,2582,905,2069,3712,205],[66,84,16,86,74,85,7,50,27,66,29,27,19,61,79,26,19,47,26,22,0,150,79,265,126,464,188,267,113,174,93,293,265,106,380,299,101,273,62,141,1292,2256,2097,4607,3301,1200,2640,2216,4429,719],[28,53,16,28,25,50,3,23,102,61,90,27,35,28,86,19,7,57,26,22,317,0,86,79,55,119,83,163,113,178,93,95,254,106,119,115,101,93,64,55,1292,2470,1614,1343,1717,1200,2319,799,2568,205],[86,53,40,97,76,73,9,55,27,91,29,57,56,97,70,22,15,73,26,22,119,120,0,312,217,409,275,317,113,279,93,254,381,106,296,339,306,327,88,148,1292,2787,3991,4357,3678,1200,2540,2729,5216,630],[49,24,16,28,25,76,7,52,27,37,29,27,19,77,24,17,17,22,26,22,285,57,160,0,208,310,209,397,113,218,351,208,308,359,282,335,101,217,31,164,1292,1309,1309,2925,2913,1200,3264,1554,4379,575],[28,24,16,84,25,82,8,54,27,40,29,27,19,96,24,17,15,22,26,22,472,57,126,308,0,455,273,404,113,308,348,313,402,391,255,361,101,182,31,201,1292,1309,1309,4031,2330,1200,3184,2126,4464,459],[71,24,16,28,25,38,11,31,27,24,29,27,19,86,24,17,21,22,26,22,285,57,124,300,99,0,269,356,113,323,93,95,184,324,371,127,101,93,31,55,1292,1309,1309,5022,2079,1200,2366,799,3235,205],[86,24,16,28,25,30,9,36,27,24,29,27,19,28,24,17,20,22,26,22,272,57,135,165,105,317,0,248,113,266,93,95,162,336,119,118,101,93,31,55,1292,1309,1309,4350,2424,1200,1813,799,3923,205],[93,62,47,59,66,73,10,71,82,70,84,75,60,74,91,57,25,65,65,22,343,212,240,240,211,367,219,0,433,86,317,208,322,412,373,278,262,263,86,144,4911,4321,3664,3734,3738,3466,905,2251,4120,503],[49,24,16,54,25,88,3,70,27,43,36,27,19,28,38,34,7,30,56,82,119,57,79,79,55,119,83,178,0,86,93,95,115,254,359,235,201,93,31,55,4806,4582,1309,1343,1500,4214,905,2607,1416,205],[70,84,16,75,90,69,10,38,101,64,91,27,32,100,80,27,14,50,26,22,323,138,143,237,166,425,315,116,113,0,222,363,340,354,288,353,101,211,83,146,1292,3846,1955,4697,3768,1200,905,2092,3054,540],[28,24,16,103,25,52,3,53,27,48,29,27,19,28,24,17,7,22,26,22,119,57,79,266,216,119,83,333,113,217,0,223,271,106,393,421,101,242,31,200,1292,1309,1309,1343,3226,1200,905,2715,1416,505],[28,24,16,83,25,72,3,55,27,33,29,27,19,28,24,17,7,22,26,22,286,57,148,228,208,119,83,303,113,194,368,0,115,173,395,305,101,223,31,169,1292,1309,1309,1343,3089,1200,905,1980,1416,557],[85,86,63,72,89,90,9,44,76,64,80,76,56,88,89,18,27,64,65,22,450,202,269,197,190,269,172,414,113,290,367,95,0,300,399,395,234,342,98,188,1292,2218,3316,3381,3509,1200,3231,2570,4250,670],[82,24,50,72,45,96,6,74,27,59,29,58,38,77,25,49,16,76,26,63,119,57,79,232,118,334,269,365,245,249,93,279,438,0,356,314,264,328,31,142,3452,3052,4730,4103,3616,2750,3242,2576,3652,586],[84,24,53,89,28,107,7,60,27,55,48,27,64,28,32,35,17,69,88,46,308,57,164,225,112,402,83,445,446,253,205,322,403,317,0,315,239,268,31,177,2648,4581,2977,3172,2273,4546,3155,2486,5019,574],[111,94,37,64,55,98,8,87,59,57,72,87,56,85,67,66,21,77,92,55,287,138,201,240,162,470,279,415,336,272,254,330,453,278,396,0,301,221,80,120,3323,5113,4336,4649,3513,3816,2911,2556,3559,440],[106,24,45,55,39,93,3,74,27,56,63,58,75,106,37,34,7,80,91,50,119,57,203,79,55,119,83,260,349,86,93,95,327,211,333,226,0,299,31,55,3538,2921,4047,3345,3541,2829,905,2355,1416,205],[108,24,55,105,46,96,3,55,27,57,60,65,73,111,24,17,7,77,59,22,419,57,180,198,211,119,83,393,113,158,336,194,428,230,317,427,246,0,31,115,1292,1309,3373,3022,2926,1200,905,2076,1416,687],[28,59,16,28,99,42,3,23,56,79,61,27,23,28,69,32,7,22,26,22,316,199,102,79,55,119,83,126,113,162,93,95,275,106,119,129,101,93,0,55,1292,3536,2451,1343,1860,1200,1870,799,2861,205],[28,24,16,105,25,61,3,38,27,45,29,27,19,28,24,17,7,22,26,22,327,57,104,233,151,119,83,410,113,237,324,243,313,106,209,313,101,247,31,0,1292,1309,1309,1818,2719,1200,905,2500,1416,690],[43,24,16,29,25,65,3,64,27,68,29,27,19,28,29,40,7,24,97,72,119,57,79,79,55,119,83,186,257,86,93,95,115,178,291,168,229,93,31,55,0,4635,1309,1343,1010,2765,905,2492,1416,205],[45,92,16,28,83,77,3,83,106,70,77,27,30,28,78,41,7,71,83,63,468,136,162,79,207,119,83,417,330,239,315,352,247,231,332,225,179,161,83,187,4204,0,1309,1684,2330,3487,1922,2997,1875,570],[93,48,51,28,96,94,3,40,94,62,105,93,51,105,64,21,7,69,84,22,291,223,298,79,55,119,83,255,113,209,93,95,282,197,125,215,380,287,76,55,1292,1309,0,3684,3877,1200,3052,868,1757,205],[85,24,60,98,40,97,9,74,27,60,62,87,64,111,24,64,7,54,96,55,324,57,301,248,146,280,318,339,374,309,219,253,359,359,393,407,296,312,31,160,1292,4967,4472,0,2347,3529,2594,2751,5590,535],[103,68,16,86,52,86,7,58,104,86,86,105,56,64,81,17,14,83,93,87,286,138,221,204,151,287,276,413,420,260,197,213,454,238,384,343,327,211,86,132,4953,3903,4659,4367,0,3174,2866,2092,4060,410],[46,24,16,46,25,65,3,82,27,52,29,27,19,28,37,45,7,30,52,49,119,57,79,79,55,119,83,243,238,86,93,95,115,201,427,186,275,93,31,55,4567,3179,1309,1343,1010,0,905,2990,1416,205],[70,65,62,28,66,92,9,56,74,62,91,73,49,108,73,30,16,50,51,22,288,224,233,268,95,283,280,116,113,86,93,95,252,274,367,159,222,274,101,55,1292,2710,4847,4289,3364,1200,0,1028,4608,205],[94,24,33,107,33,97,3,23,27,55,68,101,39,85,25,53,7,77,96,72,294,57,193,274,166,119,83,392,411,154,351,299,447,208,347,310,364,258,31,144,4594,4209,4138,2732,3939,4018,905,0,1416,430],[50,73,16,28,58,39,10,59,85,94,76,27,24,57,61,31,23,51,26,22,303,197,131,192,123,372,256,291,113,247,93,95,173,273,254,199,101,93,119,55,1292,4029,1533,3566,3312,1200,3606,799,0,205],[28,24,16,77,25,77,3,49,27,50,29,27,19,28,24,17,7,22,26,22,391,57,136,246,198,119,83,319,113,147,365,353,450,139,267,357,101,215,31,185,1292,1309,1309,1734,1964,1200,905,2725,1416,0],];
precedences = [{},{46,47},{},{16},{},{},{8},{25,28},{2},{},{},{},{},{},{},{},{},{},{16},{16},{},{},{},{40},{},{},{},{},{},{},{},{},{},{},{46},{},{19},{},{26},{35},{},{},{},{},{},{10},{},{},{},{},];
required_resource = [[2,0,0,0,0,0,0,0],[0,0,0,0,0,0,0,0],[2,2,3,0,4,1,3,2],[0,0,0,0,0,0,0,0],[1,2,3,0,3,3,0,4],[3,2,4,4,1,1,2,3],[0,0,0,0,0,0,0,0],[0,3,0,0,3,0,0,0],[0,0,0,0,0,0,0,0],[2,1,4,3,2,2,2,3],[3,4,4,2,3,4,0,0],[0,0,0,2,0,2,0,0],[2,0,1,0,0,4,0,1],[0,0,0,2,0,3,0,0],[0,4,0,2,2,2,3,0],[0,0,0,0,0,0,0,0],[0,0,0,0,0,0,0,0],[4,0,0,0,0,0,0,0],[3,3,2,2,4,2,0,0],[0,0,0,0,0,0,0,0],[0,0,0,0,0,0,0,0],[0,0,0,0,0,0,0,0],[2,4,3,3,1,1,0,0],[0,0,0,0,0,0,0,0],[0,0,0,0,0,0,0,0],[0,0,0,0,0,0,0,0],[0,0,0,0,0,0,0,0],[0,0,1,0,2,1,0,0],[0,0,0,0,0,0,0,0],[0,0,0,0,0,0,0,0],[0,0,0,0,0,0,0,0],[0,0,0,0,0,0,0,0],[0,1,0,4,3,0,0,0],[4,3,4,3,3,1,0,0],[0,0,0,1,0,2,0,0],[4,0,0,0,1,1,4,0],[3,1,0,0,0,0,2,0],[0,4,0,3,4,4,3,0],[0,0,0,0,0,0,0,0],[0,0,0,0,0,0,0,0],[0,0,0,0,0,0,0,0],[0,0,0,0,0,0,0,0],[3,1,1,3,3,4,3,2],[1,1,4,1,0,0,0,1],[3,4,3,0,3,1,1,3],[0,0,0,0,0,0,0,0],[0,0,2,0,2,1,0,0],[0,4,0,0,2,0,0,0],[0,0,0,0,0,0,0,0],[0,0,0,0,0,0,0,0],];
n_res_periods = [31,17,35,41,14,13,17,18,];
res_period_start = [[0,3246,6492,9738,12984,16230,19476,22722,25968,29214,32460,35706,38952,42198,45444,48690,51936,55182,58428,61674,64920,68166,71412,74658,77904,81150,84396,87642,90888,94134,97380,0,0,0,0,0,0,0,0,0,0],[0,6001,12002,18003,24004,30005,36006,42007,48008,54009,60010,66011,72012,78013,84014,90015,96016,0,0,0,0,0,0,0,0,0,0,0,0,0,0,0,0,0,0,0,0,0,0,0,0],[0,2920,5840,8760,11680,14600,17520,20440,23360,26280,29200,32120,35040,37960,40880,43800,46720,49640,52560,55480,58400,61320,64240,67160,70080,73000,75920,78840,81760,84680,87600,90520,93440,96360,99280,0,0,0,0,0,0],[0,2486,4972,7458,9944,12430,14916,17402,19888,22374,24860,27346,29832,32318,34804,37290,39776,42262,44748,47234,49720,52206,54692,57178,59664,62150,64636,67122,69608,72094,74580,77066,79552,82038,84524,87010,89496,91982,94468,96954,99440],[0,7260,14520,21780,29040,36300,43560,50820,58080,65340,72600,79860,87120,94380,0,0,0,0,0,0,0,0,0,0,0,0,0,0,0,0,0,0,0,0,0,0,0,0,0,0,0],[0,8114,16228,24342,32456,40570,48684,56798,64912,73026,81140,89254,97368,0,0,0,0,0,0,0,0,0,0,0,0,0,0,0,0,0,0,0,0,0,0,0,0,0,0,0,0],[0,5912,11824,17736,23648,29560,35472,41384,47296,53208,59120,65032,70944,76856,82768,88680,94592,0,0,0,0,0,0,0,0,0,0,0,0,0,0,0,0,0,0,0,0,0,0,0,0],[0,5623,11246,16869,22492,28115,33738,39361,44984,50607,56230,61853,67476,73099,78722,84345,89968,95591,0,0,0,0,0,0,0,0,0,0,0,0,0,0,0,0,0,0,0,0,0,0,0],];
res_period_end = [[3246,6492,9738,12984,16230,19476,22722,25968,29214,32460,35706,38952,42198,45444,48690,51936,55182,58428,61674,64920,68166,71412,74658,77904,81150,84396,87642,90888,94134,97380,100000,0,0,0,0,0,0,0,0,0,0],[6001,12002,18003,24004,30005,36006,42007,48008,54009,60010,66011,72012,78013,84014,90015,96016,100000,0,0,0,0,0,0,0,0,0,0,0,0,0,0,0,0,0,0,0,0,0,0,0,0],[2920,5840,8760,11680,14600,17520,20440,23360,26280,29200,32120,35040,37960,40880,43800,46720,49640,52560,55480,58400,61320,64240,67160,70080,73000,75920,78840,81760,84680,87600,90520,93440,96360,99280,100000,0,0,0,0,0,0],[2486,4972,7458,9944,12430,14916,17402,19888,22374,24860,27346,29832,32318,34804,37290,39776,42262,44748,47234,49720,52206,54692,57178,59664,62150,64636,67122,69608,72094,74580,77066,79552,82038,84524,87010,89496,91982,94468,96954,99440,100000],[7260,14520,21780,29040,36300,43560,50820,58080,65340,72600,79860,87120,94380,100000,0,0,0,0,0,0,0,0,0,0,0,0,0,0,0,0,0,0,0,0,0,0,0,0,0,0,0],[8114,16228,24342,32456,40570,48684,56798,64912,73026,81140,89254,97368,100000,0,0,0,0,0,0,0,0,0,0,0,0,0,0,0,0,0,0,0,0,0,0,0,0,0,0,0,0],[5912,11824,17736,23648,29560,35472,41384,47296,53208,59120,65032,70944,76856,82768,88680,94592,100000,0,0,0,0,0,0,0,0,0,0,0,0,0,0,0,0,0,0,0,0,0,0,0,0],[5623,11246,16869,22492,28115,33738,39361,44984,50607,56230,61853,67476,73099,78722,84345,89968,95591,100000,0,0,0,0,0,0,0,0,0,0,0,0,0,0,0,0,0,0,0,0,0,0,0],];
res_period_capacity = [[26,25,25,23,21,18,18,18,20,0,22,19,0,18,16,15,17,17,17,17,16,14,16,0,16,19,0,17,0,18,19,0,0,0,0,0,0,0,0,0,0],[19,18,15,15,16,14,14,16,0,15,0,0,17,15,16,0,13,0,0,0,0,0,0,0,0,0,0,0,0,0,0,0,0,0,0,0,0,0,0,0,0],[17,20,22,23,0,19,15,13,14,11,14,0,17,0,14,12,11,12,12,10,13,0,11,14,17,17,15,13,12,12,0,15,13,11,11,0,0,0,0,0,0],[20,20,22,20,22,22,22,22,21,19,16,18,17,14,16,0,0,16,15,16,16,14,16,18,16,17,19,18,18,18,20,20,20,17,16,17,0,16,14,0,0],[17,19,19,15,0,12,13,16,16,16,0,17,14,13,0,0,0,0,0,0,0,0,0,0,0,0,0,0,0,0,0,0,0,0,0,0,0,0,0,0,0],[20,18,16,0,18,20,16,0,13,14,17,0,18,0,0,0,0,0,0,0,0,0,0,0,0,0,0,0,0,0,0,0,0,0,0,0,0,0,0,0,0],[9,10,0,13,11,0,15,15,0,0,0,15,0,17,0,16,17,0,0,0,0,0,0,0,0,0,0,0,0,0,0,0,0,0,0,0,0,0,0,0,0],[25,25,25,22,20,19,21,0,23,19,16,15,17,15,16,13,16,19,0,0,0,0,0,0,0,0,0,0,0,0,0,0,0,0,0,0,0,0,0,0,0],];
