n_jobs = 100;
n_machines = 1;
n_resources = 13;
max_periods = 102;
processing = [10,8,43,14,3,4,47,15,32,47,48,54,25,15,47,11,19,10,56,41,52,45,38,29,22,31,32,8,29,41,12,47,54,21,5,3,4,10,44,59,150,96,229,86,216,159,90,191,230,81,153,112,108,163,195,101,107,69,188,202,174,152,151,92,74,138,61,149,158,174,234,154,227,164,66,179,191,179,85,123,601,1315,1192,1379,1776,2547,2814,920,258,298,1484,2720,299,569,381,1157,2246,1652,1481,2847];
due = [17,30,102951,111195,82,59,190463,297,336,272,1063,125654,61964,236,265,1335,110721,365,88404,451,66585,1444,177795,1056,104165,48709,166200,100390,1857,1059,890,1255,2931,1103,1916,2356,3573,51972,185750,122350,124298,4152,1033,122991,70788,108201,4544,1427,3891,132000,8939,10960,39635,8850,85360,13066,11916,4799,13261,6312,6444,87154,4481,11451,7223,17537,21736,65004,112164,11289,23034,131628,11235,24666,19578,12237,151385,47831,11848,27845,17700,41860,17480,23773,33168,33938,27221,37152,114122,84466,165298,80786,38910,73917,40678,110391,162297,96664,135910,86252];
initial_setup = [0,0,22,22,28,13,22,15,8,26,0,1,7,7,12,24,28,4,12,27,13,3,17,18,23,10,0,16,1,24,5,29,29,15,12,21,23,8,6,23,44,118,51,75,84,71,98,51,52,73,78,38,45,42,117,118,108,71,106,46,98,56,79,60,117,93,61,63,36,73,112,69,32,111,83,117,104,45,59,113,776,1251,738,636,172,394,141,274,1382,728,962,158,1037,206,1220,593,926,915,925,570];
eligible = [{1},{1},{1},{1},{1},{1},{1},{1},{1},{1},{1},{1},{1},{1},{1},{1},{1},{1},{1},{1},{1},{1},{1},{1},{1},{1},{1},{1},{1},{1},{1},{1},{1},{1},{1},{1},{1},{1},{1},{1},{1},{1},{1},{1},{1},{1},{1},{1},{1},{1},{1},{1},{1},{1},{1},{1},{1},{1},{1},{1},{1},{1},{1},{1},{1},{1},{1},{1},{1},{1},{1},{1},{1},{1},{1},{1},{1},{1},{1},{1},{1},{1},{1},{1},{1},{1},{1},{1},{1},{1},{1},{1},{1},{1},{1},{1},{1},{1},{1},{1},];
setup = [[0,2,17,41,54,8,58,17,11,91,65,22,69,32,48,5,41,16,48,12,27,29,94,34,31,26,0,20,37,26,103,52,115,40,11,43,61,30,3,26,270,99,119,127,84,123,243,380,211,83,219,245,179,424,168,372,239,82,147,263,188,309,110,409,254,248,242,289,126,57,128,262,317,249,162,437,261,179,259,275,1969,2987,806,1682,1992,5598,1740,2760,677,2075,3687,1303,865,3900,1882,2693,3874,3296,2121,1631],[62,0,56,52,57,12,70,21,23,48,65,19,61,29,49,16,53,63,14,10,14,29,84,36,30,29,0,27,35,36,71,93,75,20,6,45,65,27,3,8,250,339,115,78,307,110,274,394,209,123,208,243,164,395,121,226,236,100,194,241,296,330,89,277,331,343,244,316,143,193,164,263,344,202,250,450,335,163,263,297,1935,3160,994,1882,505,3622,1344,2085,642,1457,3928,1165,911,3410,3281,2443,2365,1974,1659,924],[22,2,0,60,43,12,59,27,11,86,71,19,67,23,35,5,72,16,47,8,20,24,52,33,31,34,0,22,31,33,55,79,66,44,9,33,97,45,2,16,348,99,139,88,84,139,324,381,217,111,267,392,133,251,135,221,343,95,131,184,264,235,95,290,395,365,348,402,123,57,153,269,214,349,233,444,274,151,199,257,1905,3217,764,2398,1136,5265,1669,2383,807,2357,2722,1497,589,3130,2411,2263,3164,2997,1993,1296],[52,3,67,0,60,11,72,25,40,67,90,7,88,21,31,13,78,55,29,14,21,23,89,42,9,28,0,22,27,35,76,68,78,73,11,45,28,39,3,28,192,276,143,106,275,178,283,389,184,117,360,397,128,334,93,368,257,134,225,292,246,378,72,312,391,250,353,408,100,178,165,295,315,324,134,380,331,135,188,163,3154,3890,1161,2043,1339,5091,1538,2900,810,1647,4038,1124,750,2544,1687,3443,3445,3721,1453,1167],[82,3,65,35,0,4,65,25,29,69,81,22,85,31,47,11,63,56,55,4,26,30,96,45,33,23,0,25,34,42,80,100,106,64,10,57,111,28,2,24,91,304,147,133,181,55,252,270,286,114,222,106,108,301,168,395,403,93,187,312,211,282,122,214,405,257,230,449,164,145,156,168,255,341,232,365,209,194,150,233,2123,2701,923,2580,1269,4183,1263,2019,999,1311,3584,1988,1089,3806,1909,2629,3202,946,1481,1033],[64,3,34,48,17,0,46,27,41,73,105,18,90,20,47,13,73,54,37,4,27,22,97,49,34,30,0,25,27,42,59,100,74,78,8,32,87,32,2,23,91,348,136,131,201,55,259,343,184,155,380,106,130,329,128,309,392,135,154,331,196,332,135,309,366,251,319,448,112,116,112,168,320,239,227,243,342,130,246,154,2098,3370,1239,1857,1156,3059,1538,2102,715,2183,3249,1765,926,2401,3176,3019,3685,946,1232,1304],[80,2,43,39,66,13,0,19,30,52,27,25,56,9,37,18,41,40,47,11,21,21,53,42,31,27,0,7,25,28,76,26,70,64,6,54,109,29,3,27,339,358,75,130,325,141,250,225,301,129,386,417,152,263,88,230,344,151,223,198,297,331,114,350,381,271,379,298,109,184,182,171,231,346,156,307,345,232,162,287,2110,3499,826,3008,1692,5457,1245,2401,780,2101,3711,1036,815,2508,2203,2901,1154,2551,1584,1062],[80,3,51,59,50,12,71,0,42,23,99,24,78,29,49,17,43,62,49,8,17,18,77,50,19,34,0,23,39,31,26,54,93,47,11,58,79,42,3,19,213,303,138,135,194,184,286,258,156,104,202,302,137,283,96,342,118,123,242,312,175,196,130,231,250,250,245,410,121,143,181,179,215,265,169,306,260,190,169,174,2337,2536,1299,1947,1348,3981,1780,891,623,1811,1116,1582,623,3351,1894,2131,4563,3577,1246,1516],[22,3,17,66,52,11,48,14,0,84,100,16,61,28,41,5,72,16,54,12,27,18,68,49,31,37,0,24,30,22,85,97,79,73,7,39,73,26,3,23,292,99,92,81,84,113,315,338,168,80,330,402,111,348,102,359,465,118,257,185,260,374,110,386,233,401,387,387,139,57,139,210,236,198,237,332,332,149,148,222,2059,3268,1020,2495,1499,2944,1979,2666,1006,2234,2687,1557,864,3567,3028,2643,3316,3392,2126,1792],[54,3,36,50,35,11,57,7,41,0,71,14,51,20,42,10,52,33,40,15,20,26,62,28,27,35,0,24,32,27,26,56,94,47,8,46,59,29,2,22,233,395,112,78,171,178,263,376,269,154,369,252,143,385,86,230,118,125,239,193,239,195,131,343,324,397,296,273,91,223,180,291,364,358,231,363,307,173,194,185,2543,2579,1184,2140,1985,5459,1798,891,524,1486,1116,1605,752,2033,2189,3071,3038,2235,1812,1160],[57,2,38,43,45,10,20,18,29,47,0,24,89,9,38,18,43,46,34,9,17,26,73,45,27,29,0,7,22,32,65,26,89,43,10,46,97,47,2,17,232,341,114,114,255,164,307,393,270,129,352,271,146,428,124,412,394,153,232,246,237,231,72,326,340,291,343,439,98,195,167,307,223,330,205,363,325,246,242,181,1937,2460,772,2346,1982,3437,1090,2696,728,1488,3359,1349,888,3033,2855,3206,1154,2103,1573,1191],[84,3,53,17,63,8,46,17,29,85,70,0,69,24,59,14,65,35,53,14,22,19,86,54,9,28,0,14,28,38,84,91,93,70,10,43,28,30,2,28,209,371,128,116,298,141,315,211,211,99,382,251,177,295,147,302,371,137,155,244,174,298,87,393,333,287,358,343,99,143,143,298,340,325,225,429,304,139,144,257,3224,4082,1171,2151,1710,3634,1306,3180,775,2363,3028,1324,916,2524,2305,3446,2992,3535,1328,1301],[78,3,45,56,65,11,45,21,38,86,94,15,0,18,56,11,20,62,54,13,17,16,74,48,33,23,0,18,22,36,78,68,82,57,10,53,64,45,2,22,203,200,96,92,241,126,309,395,306,85,368,419,131,389,148,315,284,153,222,83,229,346,85,411,393,304,393,355,109,161,101,210,299,314,188,439,333,250,180,276,1704,3773,1050,2245,1732,4805,1260,2936,890,1732,2499,1462,990,3429,2163,2345,3181,3271,2095,1048],[75,3,38,67,38,12,20,25,43,83,27,17,71,0,31,18,66,55,31,14,17,25,60,37,18,29,0,7,34,32,79,26,108,76,7,59,83,44,3,23,337,301,132,127,172,146,177,359,212,108,251,373,182,272,145,220,283,146,229,308,302,379,79,389,419,449,287,398,99,227,123,233,290,308,197,363,276,230,149,245,3291,3389,711,1914,1928,4654,1377,2055,740,1905,3206,1838,993,3717,2688,3753,1154,3760,2010,1105],[85,2,57,40,43,12,79,22,30,90,65,19,57,30,0,15,71,51,33,9,15,29,70,44,18,29,0,16,38,43,75,52,108,57,9,42,92,40,3,31,324,381,103,78,219,195,86,271,189,39,211,225,130,273,125,364,466,91,170,322,303,220,77,255,111,410,333,116,88,148,48,239,100,183,238,245,201,157,271,174,1776,3401,930,2750,1812,4702,504,3124,584,2079,2261,511,1096,4007,2623,3495,4303,3590,1224,1789],[22,2,17,54,45,13,68,27,11,90,91,26,78,18,32,0,71,16,49,11,24,24,70,48,19,29,0,24,34,40,56,100,101,78,6,49,76,44,3,26,231,99,140,109,84,196,290,379,243,154,258,399,184,395,109,394,285,113,206,205,157,252,79,233,344,326,288,432,160,57,148,210,252,290,221,468,333,151,235,305,2905,2414,1176,2686,1737,4999,1931,2708,950,2231,2879,1591,629,3563,1733,2010,4274,1944,1228,1112],[51,3,50,53,65,8,57,25,35,89,90,27,24,21,36,16,0,52,44,10,18,31,58,41,28,32,0,19,30,43,56,66,61,41,6,50,111,47,3,28,208,285,113,105,321,119,312,239,297,100,237,260,110,230,114,270,281,153,259,83,261,235,68,285,301,288,300,370,136,200,121,298,379,183,212,451,301,215,149,176,3234,3694,744,2530,1732,3160,1914,2759,743,2354,3674,1427,781,2572,2933,3461,4355,3760,2011,1546],[22,2,17,36,63,8,44,23,11,69,98,14,82,29,36,5,48,0,30,9,16,19,56,43,33,21,0,14,24,40,96,66,97,44,8,37,60,32,3,21,339,99,130,95,84,152,264,330,195,135,229,339,148,415,144,263,300,117,241,322,184,316,124,223,419,284,338,449,112,57,106,177,289,209,193,308,286,196,154,248,2340,2745,772,1644,1872,4844,1627,2135,691,1753,3564,1774,757,2434,1820,2624,4563,3581,1828,1807],[84,1,45,35,43,13,69,18,35,50,100,17,48,19,36,10,56,40,0,10,20,19,86,29,18,20,0,16,27,22,102,75,62,20,10,32,58,31,2,8,310,245,99,108,300,182,273,296,252,80,257,356,96,279,130,309,359,116,144,227,256,369,115,249,409,247,288,237,164,227,100,244,381,321,167,239,211,215,201,173,3138,3848,841,1857,505,4721,1994,2210,671,1272,3312,1487,989,2118,1974,2203,4438,2787,2121,1395],[49,2,39,63,17,4,53,27,36,61,64,22,92,29,58,17,60,38,47,0,16,19,61,45,28,24,0,16,30,39,66,62,98,41,8,35,107,36,2,21,91,318,139,90,331,55,266,357,222,84,239,106,102,228,106,257,321,139,177,236,166,268,124,322,438,299,305,400,175,147,171,247,395,242,193,388,202,231,251,160,3023,4039,871,2973,1793,4688,1459,2789,541,1857,3434,1993,1097,2472,1772,2008,2923,946,1775,1348],[84,3,54,35,58,12,76,14,43,60,57,20,90,18,45,19,64,38,41,9,0,23,26,51,21,34,0,18,31,42,93,87,72,50,6,58,105,12,2,17,253,278,136,34,313,198,263,369,279,130,381,243,154,289,115,368,262,80,234,269,198,225,68,409,273,395,367,410,99,147,112,176,324,324,180,262,286,197,254,158,831,2779,1111,2442,1236,4767,1752,3235,718,1490,3561,1527,800,3444,1682,2148,4500,3283,2115,455],[51,2,41,34,61,13,77,25,38,78,92,16,72,30,34,18,79,54,35,14,21,0,94,32,20,37,0,17,11,22,87,98,92,50,7,36,111,26,2,30,321,243,128,124,190,110,213,290,232,125,218,373,103,112,104,353,359,147,170,299,238,356,124,358,235,118,402,342,165,134,155,176,355,321,152,408,87,162,253,284,2415,2581,1346,3143,1245,5511,1122,3306,872,1280,4402,1388,971,2135,2430,1914,3475,2026,1835,1754],[81,3,67,48,51,13,45,26,43,59,76,18,55,27,58,18,75,49,55,13,7,16,0,41,26,32,0,19,39,28,80,97,96,48,11,33,70,12,2,26,229,315,87,34,293,134,172,244,222,82,250,391,157,320,109,266,432,123,218,201,174,371,100,357,396,373,322,363,164,141,187,173,241,209,142,261,229,170,198,218,831,3387,1210,2234,1943,3666,1827,2599,808,1613,3852,1355,955,3588,3186,2056,2395,3740,1211,455],[80,3,42,40,43,14,58,22,22,62,71,15,55,34,54,16,54,37,55,8,16,31,58,0,22,10,0,27,25,41,100,82,29,73,3,40,88,42,2,25,337,385,107,85,234,153,255,398,284,106,235,333,184,352,124,106,327,133,248,184,264,308,34,370,269,450,288,377,44,203,180,241,372,220,182,466,312,166,71,208,3119,2246,1335,2117,1039,3695,1696,3148,254,1489,4001,1581,833,3377,1673,3113,4585,3433,2103,1765],[64,3,63,17,60,11,71,21,34,85,92,7,86,34,33,10,66,35,30,8,17,25,52,43,0,38,0,23,30,35,53,52,60,68,11,49,28,44,3,20,341,319,133,116,174,196,301,210,241,114,194,410,166,399,92,278,262,136,155,328,279,196,95,248,443,271,380,366,90,153,156,298,255,300,134,272,228,142,154,277,3122,2118,919,2053,1367,3281,1572,3095,831,1918,2491,1711,606,3309,2913,2909,3940,2803,2083,1208],[56,3,66,43,39,13,70,27,33,69,102,17,62,19,55,14,60,35,43,8,23,20,79,14,26,0,0,23,26,29,98,66,29,74,3,48,88,38,3,30,311,341,112,69,244,158,259,362,234,79,251,287,164,364,145,106,318,142,168,268,199,244,34,289,354,373,272,333,44,155,153,199,299,291,201,258,234,211,71,238,2420,3135,1077,2417,2010,2904,1219,2040,254,1298,4133,1278,916,2223,3117,3036,4196,3597,1851,1091],[71,2,64,63,54,13,45,26,36,60,60,19,85,34,48,14,64,63,35,11,19,28,65,33,20,36,0,19,31,11,91,71,97,47,7,39,72,25,2,16,349,318,113,70,298,213,240,359,78,143,303,362,180,341,171,326,430,93,223,234,177,354,81,323,234,465,327,381,146,198,157,82,269,202,228,337,219,139,157,288,1889,3036,1303,2219,1448,3353,1269,3412,625,1837,3701,1574,622,2310,2566,948,3241,2902,1153,1774],[86,2,63,49,38,10,20,21,33,79,27,20,80,9,35,19,58,36,50,10,15,31,86,52,26,33,0,0,42,40,101,26,73,42,10,52,61,35,2,23,226,291,106,93,281,121,340,241,174,154,297,298,145,233,147,311,413,151,250,237,187,322,116,301,389,359,224,238,110,185,100,203,292,201,199,402,304,221,162,240,2555,3385,1303,1648,1073,5483,1763,2589,672,1819,2398,1821,1062,2059,2338,3481,1154,2075,1275,1761],[82,3,38,46,61,12,50,21,26,80,64,19,50,27,42,10,75,62,29,11,25,8,74,44,34,24,0,20,0,38,57,88,93,40,8,53,62,41,3,31,240,376,111,87,294,141,217,238,263,135,368,363,187,112,155,286,469,98,199,242,288,298,88,304,363,118,230,355,156,216,113,200,359,319,210,384,87,193,259,177,3230,2915,1278,2576,1546,3211,1271,2196,781,1444,3089,1480,789,3718,2809,3778,3897,2884,2108,1106],[71,2,61,64,58,12,59,16,23,80,97,27,66,31,58,10,63,58,29,13,21,31,77,45,20,24,0,20,30,0,103,103,76,75,8,46,92,25,3,17,204,315,94,121,247,188,322,214,78,149,348,294,116,264,118,412,330,128,205,178,260,327,70,396,300,257,258,255,164,209,152,82,248,217,183,352,197,197,202,178,2841,2304,925,3042,1505,5037,1962,3118,806,1496,4405,1396,893,3778,3111,948,4520,3356,2201,1804],[67,2,43,36,41,13,71,7,32,23,56,15,55,28,55,18,65,40,43,9,20,20,72,44,34,23,0,19,40,38,0,53,109,42,10,36,62,25,3,19,273,206,119,128,226,175,325,218,239,128,255,223,131,341,110,241,118,155,237,170,211,203,114,416,297,302,329,259,152,128,173,236,391,188,224,373,210,176,184,176,1794,3361,780,2501,1607,3374,1399,891,838,1683,1116,1252,1065,2853,2733,3634,3524,3294,1139,955],[45,3,38,61,51,14,20,25,27,71,27,14,65,9,33,17,42,53,43,11,24,17,80,30,26,39,0,7,32,35,87,0,80,78,10,52,63,33,3,28,260,242,84,124,281,172,242,296,302,96,295,301,139,365,137,305,419,83,153,218,161,336,90,297,327,357,344,268,142,188,117,308,209,303,244,404,209,226,220,168,2191,2294,1002,2138,1226,5098,1816,2319,572,2467,2628,1698,711,3263,1962,3712,1154,3680,1646,1639],[86,3,65,51,62,13,51,14,31,55,68,24,62,24,53,18,72,44,31,8,21,19,56,14,29,10,0,14,33,36,57,83,0,47,3,59,99,24,3,21,193,242,117,118,271,155,216,382,266,116,348,294,177,330,118,106,405,142,248,174,251,319,34,289,398,383,260,391,44,167,111,227,201,181,230,392,181,151,71,197,1913,2893,1097,2560,1242,5446,1841,3545,254,2268,3767,1743,1121,2663,1791,2678,3242,2330,1883,1104],[59,1,62,42,65,15,44,26,34,50,90,22,63,22,49,14,71,44,14,10,23,26,102,47,30,27,0,14,34,32,91,54,94,0,11,44,104,26,2,8,228,328,122,97,212,183,235,289,309,87,263,216,180,241,171,278,350,78,249,174,215,218,124,242,314,265,212,327,121,146,127,249,228,327,197,388,195,184,198,214,1682,4010,1285,2918,505,5194,1354,3344,578,1530,3157,1676,725,2108,1863,2462,2719,2765,2198,1671],[56,2,35,41,62,14,56,18,42,73,86,15,87,29,30,11,58,35,42,13,22,17,98,14,30,10,0,18,35,33,100,73,29,51,0,41,94,24,3,20,320,256,135,96,285,164,343,307,175,138,217,397,114,292,106,106,333,137,192,231,211,215,34,383,269,322,393,375,44,222,137,170,282,220,191,346,328,167,71,254,2846,2858,1333,3134,1099,3261,1185,1840,254,2346,3021,1873,635,3137,3236,2036,4292,3408,1268,1453],[60,2,48,38,41,10,71,22,28,64,90,21,61,29,57,13,49,34,50,8,16,20,54,30,22,32,0,25,41,40,87,67,114,74,7,0,103,38,3,23,215,365,117,73,210,213,194,337,193,95,286,335,48,396,167,402,344,93,220,301,245,300,84,279,314,465,215,382,146,212,100,303,366,301,155,400,271,221,157,197,2426,2471,735,2087,1615,5573,1806,2269,903,1332,3260,1204,964,1012,824,3467,3698,2721,1707,1394],[83,2,37,17,50,12,41,15,25,46,61,7,51,19,54,17,76,38,49,9,25,21,66,46,9,35,0,22,31,30,52,99,79,76,9,39,0,46,3,29,206,248,118,133,273,186,296,288,249,116,295,348,171,373,122,339,364,122,173,179,170,241,90,237,341,381,205,355,125,135,187,182,328,283,242,319,337,210,247,204,1919,3858,839,1755,1096,5038,1177,2779,673,1856,2337,1123,1009,2302,2575,2918,3733,2768,2173,1679],[60,2,43,54,45,9,62,27,27,88,84,20,94,19,32,10,77,34,30,11,7,27,26,28,21,37,0,25,39,40,66,59,87,79,7,46,81,0,3,25,203,332,103,34,300,148,238,325,258,83,275,320,97,263,153,241,361,87,192,214,295,236,81,391,361,468,295,342,120,212,188,251,230,209,209,285,184,168,230,268,831,4152,942,2745,1591,3121,1861,3190,935,1245,2356,1806,1056,2283,3072,2936,3902,3420,1279,455],[52,3,36,54,54,15,48,25,43,65,56,23,76,22,48,18,76,55,47,9,18,24,58,34,20,30,0,20,30,37,55,96,61,65,10,50,91,26,0,22,231,375,139,78,296,172,322,325,240,111,380,399,150,252,133,265,437,152,207,251,302,349,107,107,407,313,236,383,130,226,97,243,354,269,163,336,255,166,223,200,2583,2851,950,2782,1836,5043,1741,3370,890,1502,3001,1076,668,3213,2882,3593,2783,2909,1819,1135],[75,1,50,47,57,10,72,16,30,52,100,24,61,27,59,16,67,51,14,12,16,18,85,51,31,28,0,25,24,35,97,63,66,20,9,42,103,31,3,0,294,271,83,95,206,199,295,285,299,139,297,289,98,375,106,387,406,78,156,304,153,199,122,404,391,276,318,433,169,114,124,278,270,261,229,390,279,165,282,157,2862,3024,738,2670,505,5374,1848,2858,910,2391,3080,1705,711,3583,3109,3122,3866,3741,1288,1327],[73,2,49,55,17,4,52,17,29,86,69,24,95,32,54,11,73,49,51,4,22,27,63,53,18,35,0,18,33,41,79,63,108,77,11,47,73,41,2,21,0,242,114,120,325,55,340,251,197,144,198,106,143,412,89,310,311,126,245,294,303,360,77,379,234,414,230,317,166,219,145,204,287,191,191,440,219,201,221,157,1709,2388,1341,1962,1794,5455,1669,2798,611,1646,2525,1067,797,2863,2475,3431,3018,946,1296,1653],[22,2,17,50,44,11,64,25,11,70,97,22,88,25,33,5,67,16,35,14,22,25,94,28,35,31,0,15,36,26,56,65,101,51,11,59,56,46,2,19,317,0,145,115,84,158,207,204,232,146,343,280,180,276,120,390,278,85,224,193,277,198,96,277,247,334,246,404,172,57,165,184,395,317,233,439,188,211,264,205,2771,2360,1240,2177,1530,5197,1538,2602,888,1293,3689,1189,776,3474,2985,3069,3485,2070,2130,1350],[49,2,48,42,47,15,78,15,38,80,92,22,54,33,42,16,43,50,35,10,22,26,88,34,22,29,0,14,43,31,60,98,84,67,8,33,99,39,2,23,309,384,0,132,265,204,207,248,159,89,97,385,187,313,160,364,275,137,238,233,76,340,73,259,264,238,266,350,92,154,157,167,366,346,165,444,235,228,145,201,1701,1052,836,2281,1310,3198,1834,2291,725,2175,3761,1866,289,3277,2318,2716,3441,3259,1701,1726],[80,2,63,52,48,13,68,15,22,75,68,27,82,29,43,14,63,62,30,10,7,21,26,40,35,35,0,15,22,22,77,73,106,79,11,41,66,12,2,19,186,301,88,0,251,130,258,316,297,120,290,236,133,362,121,228,249,144,183,313,249,274,115,327,386,268,354,243,117,183,160,229,339,241,228,276,217,182,158,284,831,2291,1225,2389,1914,2981,1979,1919,809,2389,3648,1075,777,2333,1769,2385,3638,2589,2040,455],[22,2,17,48,56,14,55,19,11,61,61,16,55,32,30,5,74,16,48,12,20,28,69,40,29,26,0,21,31,33,76,61,113,66,11,34,110,32,3,17,208,99,109,81,0,211,286,287,260,142,378,422,147,276,114,275,241,107,255,268,289,359,76,389,292,269,314,445,161,57,176,274,266,250,252,320,342,239,254,272,2158,2842,983,3141,1704,4863,1510,2312,539,2325,3569,1657,1087,3909,2205,2223,4561,3226,1708,1522],[62,2,39,47,17,4,40,27,42,79,72,15,90,28,41,10,64,51,53,4,19,23,60,32,20,21,0,17,26,43,62,52,60,51,6,32,64,25,2,18,91,228,120,89,276,0,297,226,304,108,282,106,127,360,128,262,270,144,194,278,192,341,97,335,291,238,300,462,166,187,134,242,380,268,157,421,290,258,213,289,2366,2619,801,1863,1473,3976,1813,2831,613,1600,2337,1182,1052,3097,3049,2771,4322,946,1762,1384],[49,3,61,43,50,8,45,19,23,61,75,22,64,28,15,13,52,57,37,14,22,27,77,31,22,28,0,14,29,34,93,87,60,45,8,31,59,32,3,18,334,275,79,79,282,170,0,280,157,39,293,246,169,384,114,377,407,121,190,258,273,301,107,216,111,335,341,116,173,152,48,285,100,280,175,268,212,196,267,160,2808,2162,885,1734,1065,5109,504,2370,510,1449,2451,511,678,3371,2382,2408,2414,3300,1573,1203],[58,3,35,47,45,9,46,20,33,64,80,25,48,18,45,11,68,39,35,12,26,26,88,43,22,31,0,15,32,30,83,77,100,62,7,31,61,30,2,25,266,242,88,129,194,161,294,0,258,124,376,416,96,233,125,254,368,142,148,303,181,297,125,304,347,419,205,369,111,204,151,286,251,254,143,275,180,133,212,269,3241,3871,1214,2335,1102,5354,1683,1922,975,1317,3268,1856,1080,3365,2410,3216,2954,3457,1228,1168],[62,3,62,35,57,8,77,20,35,71,73,20,69,21,42,10,52,44,43,12,14,25,99,35,28,39,0,27,43,11,69,69,81,69,10,43,108,33,2,25,198,393,139,100,320,181,189,364,0,136,374,413,144,245,115,232,279,125,221,204,270,305,88,354,311,415,271,241,159,145,151,82,237,298,138,270,234,135,151,255,2728,2970,926,2759,1323,5260,1719,1988,834,2086,4405,1394,845,3526,1664,948,3351,3033,2099,1106],[44,3,49,53,42,10,67,23,23,69,59,18,89,22,15,15,55,63,36,12,15,16,87,39,20,23,0,24,42,37,57,68,105,72,8,45,72,28,2,21,322,281,111,109,287,150,86,255,220,0,305,303,120,233,168,261,340,130,243,296,259,250,106,356,111,377,321,116,93,140,48,179,100,202,201,404,231,215,211,249,1911,3108,1338,1937,2014,5564,504,2075,851,2342,4044,511,748,2595,2810,3748,4464,3777,1683,1154],[87,3,54,65,45,12,59,21,34,64,70,25,58,28,50,14,43,42,37,8,15,27,90,43,20,39,0,26,27,36,55,72,76,70,6,54,77,45,3,28,324,370,37,107,231,216,334,241,283,98,0,282,156,442,87,326,402,155,155,288,76,207,108,313,427,320,254,437,162,208,182,188,262,354,168,467,203,156,184,251,3127,1052,1077,2309,1339,3531,1373,2504,916,1787,2349,1202,289,3858,3124,2805,3381,3284,2067,1595],[83,3,61,63,17,4,64,23,32,54,87,24,52,18,50,14,42,49,32,4,20,30,59,39,29,36,0,21,32,41,58,92,111,43,6,51,91,25,3,27,91,336,84,129,304,55,304,372,211,131,282,0,133,366,115,362,317,126,238,264,217,190,127,231,363,306,278,403,152,220,131,167,277,313,239,312,313,185,235,270,2457,2174,1224,2110,1870,4221,1392,2680,642,1423,3954,1176,606,3521,2324,3353,3903,946,1406,1566],[68,3,48,62,55,8,57,22,33,55,65,22,91,29,33,10,72,61,50,12,22,30,71,35,34,35,0,22,38,24,84,101,105,57,9,15,90,32,2,28,211,198,142,111,311,183,278,361,245,84,246,216,0,263,154,353,466,146,227,263,200,243,82,215,411,283,227,438,91,207,99,230,273,249,221,255,270,250,233,172,1695,2156,1351,2360,1679,4563,1222,3393,968,1638,3086,1979,854,1012,824,2131,2961,1927,1470,1095],[83,2,36,47,63,14,73,23,37,70,61,19,90,26,41,15,73,46,32,11,27,8,73,38,28,22,0,23,11,30,57,65,67,59,8,33,66,29,2,21,363,210,83,131,233,207,247,374,157,148,321,333,160,0,121,310,337,111,256,247,218,295,127,261,230,118,371,315,138,163,190,305,284,225,162,259,87,203,231,264,1666,3191,808,2878,1026,5580,1639,2913,860,2048,3786,1575,1152,3767,2539,2516,3182,2914,1997,1670],[83,3,62,52,47,8,41,15,39,68,96,14,95,21,54,17,40,38,53,11,26,23,64,39,35,33,0,27,32,27,76,73,65,47,11,44,85,37,3,18,356,341,101,123,191,211,247,328,287,141,295,215,162,258,0,397,368,110,252,228,180,339,77,266,287,353,289,328,115,150,128,255,263,90,184,298,249,176,175,235,1967,3748,1292,2930,1116,3707,1342,2611,518,1948,2455,1565,831,2244,1766,2625,3368,2772,2055,1140],[50,2,60,49,56,8,72,22,33,72,96,18,51,19,54,19,45,43,44,12,19,26,89,14,30,10,0,17,22,33,85,85,29,72,3,37,95,31,3,31,190,206,105,108,257,202,265,386,274,121,344,243,97,435,86,0,467,97,211,287,297,202,34,332,266,439,376,354,44,128,109,269,324,250,193,307,263,203,71,206,2949,2360,969,2476,1420,4000,1566,1949,254,1496,4128,1890,605,3710,2426,2246,3881,3010,2165,1433],[51,2,46,40,42,14,64,7,26,23,84,19,88,21,30,12,73,34,32,12,14,17,79,51,23,31,0,15,30,32,26,92,81,75,11,52,96,28,2,22,322,256,81,90,226,199,230,240,210,140,339,229,111,276,141,383,0,132,181,242,174,319,104,311,293,428,294,424,123,145,164,241,380,289,161,360,263,182,270,227,1791,2329,1034,2225,1298,3207,1805,891,786,1241,1116,1744,1017,2214,2315,2926,3232,3752,1183,1571],[85,3,41,61,50,14,78,27,43,54,104,17,62,33,40,11,40,46,49,15,20,21,79,44,21,38,0,25,40,29,63,90,88,77,11,42,79,34,3,22,224,376,81,130,257,147,175,379,227,121,209,273,166,293,143,347,280,0,170,318,256,345,115,231,279,277,204,345,158,198,190,221,230,190,64,119,257,230,155,194,3109,3119,838,2693,1435,4659,1105,2096,637,618,3790,1028,868,2694,3120,3236,2471,3138,1713,1363],[46,3,57,51,61,9,77,21,33,79,77,20,85,21,50,12,51,40,36,12,22,23,90,51,35,22,0,15,41,32,70,67,80,70,11,36,104,47,2,27,251,202,83,96,216,129,339,280,208,111,333,306,103,399,90,224,365,98,0,190,271,95,76,220,406,463,288,449,121,165,173,169,334,285,181,288,288,220,243,245,2940,2139,1171,792,1950,5413,1255,3563,571,1282,2434,1647,845,2191,1737,3396,3223,3210,1733,1446],[44,3,56,53,44,13,66,27,29,73,79,18,24,35,35,18,20,46,34,14,22,26,54,36,18,35,0,19,24,42,98,93,87,71,6,53,110,40,3,18,204,245,99,82,254,160,198,370,301,117,217,362,163,385,103,249,299,140,141,0,152,354,89,401,258,403,232,463,155,209,173,212,397,288,173,418,341,177,263,208,3279,2506,899,1970,1361,3282,1348,3317,863,2085,3467,1537,1050,2923,3006,3728,4390,3432,1747,1714],[54,2,43,40,56,8,50,24,36,77,105,17,88,29,53,10,44,61,39,9,22,26,62,45,23,28,0,21,23,39,53,61,85,57,11,48,68,47,3,22,224,199,37,105,204,172,296,211,238,94,97,238,162,343,131,349,368,145,192,279,0,307,110,338,344,325,292,387,127,151,145,184,368,257,212,407,270,145,282,221,2057,1052,894,1935,1999,4943,1050,3315,893,1841,2841,1495,289,2800,2377,3197,4196,2504,1517,1723],[45,3,47,34,34,14,49,24,23,49,55,22,78,34,42,17,47,56,30,14,25,24,93,53,24,24,0,16,43,42,62,59,113,65,8,45,83,38,3,26,220,269,88,127,299,176,295,350,284,93,255,336,156,365,144,350,470,142,65,259,172,0,98,278,395,283,334,302,95,176,177,193,283,273,182,305,184,180,173,273,1816,3363,967,792,1980,4247,1690,1850,755,1747,2451,1222,903,2987,1845,3346,2894,3434,1309,1708],[86,2,47,61,56,12,52,16,32,68,82,26,85,23,31,11,55,57,53,12,19,25,59,14,20,10,0,23,28,34,91,58,29,74,3,43,88,33,3,18,294,356,80,128,295,132,183,208,310,119,360,332,135,303,141,106,288,97,213,201,272,378,0,233,286,433,222,275,44,190,156,240,306,184,220,452,174,259,71,188,3179,3398,1146,2780,1923,4016,1075,1991,254,1810,4358,1328,929,2391,2791,2730,2817,2657,1131,1174],[85,2,51,50,45,9,51,19,27,59,91,24,50,26,41,18,68,62,51,12,21,23,63,48,27,23,0,16,42,24,61,64,69,65,11,56,73,24,1,27,310,225,100,84,268,162,207,367,180,106,290,244,135,269,113,238,392,125,241,195,200,240,117,0,281,358,252,246,150,144,139,301,294,309,156,270,326,208,245,184,2261,3065,1052,2996,1992,4487,1794,2678,928,2108,3206,1739,1018,2351,2006,3475,3952,3103,1194,1414],[58,3,58,49,57,8,73,24,22,53,92,16,53,35,15,17,73,42,29,8,19,31,54,55,20,30,0,16,24,31,74,102,92,58,9,31,62,26,3,25,207,234,97,124,170,156,86,362,191,39,300,241,188,350,99,364,287,136,173,166,181,355,68,349,0,286,363,116,149,204,48,219,100,319,213,395,244,248,172,240,2355,3291,703,1979,1981,5375,504,2293,989,1547,4186,511,1115,3009,2559,3785,4312,2612,1528,1500],[87,2,51,54,50,13,59,17,34,73,63,24,70,21,32,11,40,34,44,14,26,8,90,43,18,31,0,21,11,42,67,64,86,72,6,48,79,31,2,31,293,235,89,79,320,117,297,230,179,89,216,281,185,112,155,389,456,153,191,200,253,204,130,236,321,0,263,409,148,185,184,189,310,201,230,391,87,139,163,271,2123,3713,1326,2320,1236,4618,1387,2566,830,2113,3928,1280,788,3177,1687,3439,2691,2211,1248,1595],[57,2,36,67,46,14,45,18,39,53,74,21,49,32,49,10,45,33,49,9,22,24,90,30,34,22,0,17,22,42,67,93,70,46,9,43,88,33,3,24,340,381,117,127,195,182,235,384,204,95,198,241,107,371,100,361,430,131,225,221,245,346,69,287,365,289,0,345,172,117,109,199,265,329,195,370,209,65,272,77,1705,3739,341,2887,1923,1400,1492,3498,522,2264,2407,1582,700,2246,2719,2810,3932,3613,552,981],[80,2,39,37,63,9,45,26,34,82,85,22,49,20,15,11,68,52,34,9,27,30,67,37,28,23,0,25,43,27,100,53,63,67,7,53,84,45,2,16,284,309,83,82,290,187,86,344,216,39,335,420,150,388,121,413,251,124,155,255,245,233,69,386,111,393,262,0,153,222,48,179,100,278,232,417,175,208,225,177,1923,3796,806,2608,1110,3859,504,2128,844,1589,2662,511,887,2674,1863,2366,3066,2002,1597,1512],[63,3,52,44,62,11,72,18,32,90,80,22,52,27,50,13,46,48,50,11,27,22,95,14,26,10,0,18,25,27,90,57,29,69,3,54,90,25,3,21,233,271,103,108,299,123,299,360,162,146,221,235,167,260,147,106,396,154,198,323,166,238,34,334,423,439,277,339,0,184,144,215,369,358,166,307,185,143,71,174,2362,2364,1019,2052,1038,3749,1172,1955,254,1570,4099,1604,991,2263,2504,3517,2478,3338,1282,1472],[22,2,17,58,41,11,60,25,11,87,65,25,68,25,58,5,41,16,50,15,19,25,88,38,23,24,0,15,43,43,70,81,63,64,7,55,68,27,2,31,344,99,138,135,84,192,212,328,170,95,245,392,163,421,151,215,258,146,181,313,247,284,74,348,251,329,347,289,134,0,177,323,230,180,168,344,244,211,271,218,1849,3151,1021,2626,1292,4150,1267,2863,621,1654,2729,1590,895,2373,2243,2834,2603,3484,1241,969],[81,3,49,36,40,12,56,26,36,91,71,26,67,18,15,11,72,39,51,12,15,20,99,42,28,39,0,19,38,23,83,98,77,63,7,41,71,42,2,19,345,209,133,98,258,202,86,385,265,39,194,214,130,389,163,249,421,94,210,310,219,351,75,218,111,297,268,116,111,205,0,278,100,283,152,287,219,215,268,247,2032,3865,902,2479,1093,4001,504,1909,632,2413,2700,511,868,3165,2612,3325,2314,2510,2094,1056],[80,2,46,51,43,13,54,15,22,87,57,25,65,23,34,13,47,35,42,9,17,31,98,42,34,35,0,20,34,11,64,53,67,65,6,32,65,28,2,22,261,289,124,113,217,199,341,234,78,141,361,228,112,362,87,286,370,80,145,310,261,193,92,308,324,451,350,400,103,164,175,0,268,276,166,343,217,184,235,188,1991,2564,765,2277,1630,5598,1503,3428,693,2457,3510,1340,942,3287,3107,948,2896,3778,1685,1012],[71,3,42,37,54,15,75,25,40,48,57,22,80,28,15,11,73,46,54,12,23,20,75,55,28,26,0,24,26,34,96,92,112,74,9,46,72,31,3,22,285,339,79,117,320,189,86,339,169,39,304,399,178,278,131,362,366,79,168,197,153,370,94,318,111,304,233,116,120,218,48,195,0,192,145,282,310,214,186,206,2120,3952,1308,3094,1419,3823,504,3206,936,2156,2307,511,780,3978,2047,3168,2959,2586,2140,1108],[67,3,50,59,44,11,55,25,37,64,90,20,94,21,32,11,40,58,47,14,25,29,60,42,21,28,0,19,42,24,90,77,110,61,7,45,94,29,2,22,199,233,106,90,222,160,210,324,162,155,243,265,120,260,43,401,324,83,211,326,303,269,82,300,304,242,358,298,137,176,105,268,365,0,154,308,185,142,144,251,2257,2251,1292,1844,1345,3000,1539,2617,921,2201,3577,1820,720,3025,2011,3650,3255,2777,1197,1151],[53,3,56,63,35,14,74,21,38,91,90,25,50,20,33,10,41,44,34,10,22,28,85,52,26,38,0,15,30,26,80,82,96,49,10,59,107,39,3,26,306,328,144,92,306,194,331,252,205,117,253,380,101,262,158,338,278,39,131,267,225,320,120,264,328,335,391,277,110,214,157,303,248,260,0,119,248,205,166,178,2132,3299,761,1827,1107,4131,1836,2212,951,618,4064,1547,580,3581,2357,2043,3526,3598,1778,1608],[48,2,66,51,58,14,50,26,37,80,64,23,64,23,44,15,65,33,33,8,20,18,74,40,19,35,0,25,35,37,90,84,115,52,11,31,72,31,3,27,201,345,124,131,181,128,175,344,166,118,206,308,129,387,167,247,260,39,144,299,280,290,102,262,417,400,271,287,162,146,149,232,397,218,64,0,203,217,236,230,2292,4175,1262,2655,1492,3914,1925,2977,817,618,2613,1591,663,2968,2616,3346,3737,1998,1468,1548],[48,2,48,51,52,10,41,16,27,74,83,20,71,32,49,18,53,35,28,9,19,8,59,44,24,23,0,19,11,22,73,87,96,71,11,49,66,26,3,24,182,360,146,86,332,181,323,223,205,106,262,384,171,112,94,341,387,86,240,192,167,357,131,246,357,118,352,296,130,123,126,289,275,199,255,318,0,195,244,232,2982,2857,939,1961,1800,5541,1652,2461,938,1342,3970,1797,898,3270,2660,3777,4549,2435,2038,1577],[63,3,46,38,55,15,67,19,36,54,100,14,81,20,31,18,67,54,42,9,23,26,80,31,29,28,0,16,39,41,81,99,62,56,7,47,70,40,3,18,271,377,123,105,169,118,300,219,197,126,381,234,121,323,131,270,431,127,247,170,165,267,121,417,239,360,101,340,103,193,180,290,388,328,150,324,185,0,237,77,2307,2950,341,2659,1382,1400,1482,3222,719,1353,3044,1242,1088,2661,2849,3053,4009,3275,552,1681],[58,2,54,53,43,8,42,16,43,88,81,25,55,35,56,11,77,57,39,9,14,20,65,14,32,10,0,18,29,39,93,74,29,53,3,53,58,46,2,22,231,287,109,93,312,189,279,227,211,94,303,244,137,350,111,106,349,104,197,198,183,351,34,423,341,285,276,301,44,145,108,202,274,359,241,413,209,230,0,282,2218,2109,755,1742,1640,4147,1706,3032,254,2206,2547,1706,1107,3945,1913,2377,2357,2616,2160,957],[56,3,53,47,35,15,59,17,35,90,54,19,68,24,56,19,67,39,34,10,19,20,71,52,18,29,0,25,27,23,80,83,74,47,6,31,108,28,3,18,275,392,101,118,180,155,330,292,192,106,370,321,123,347,129,229,323,110,258,176,204,289,131,267,315,354,101,296,93,168,110,216,241,320,203,338,295,65,209,0,1999,4012,341,2205,1673,1400,1666,3432,668,1601,2726,1597,646,2992,1989,2549,3977,3580,552,1661],[66,2,34,66,39,11,70,26,24,46,83,14,87,23,52,15,64,43,54,15,7,17,26,30,35,34,0,22,32,28,71,73,73,58,6,44,105,12,3,16,310,364,147,34,265,147,217,248,285,94,261,326,168,316,156,259,450,84,160,321,244,228,101,423,352,268,392,316,116,142,159,241,313,321,188,326,221,215,154,261,0,2830,924,2486,1039,4797,1124,2088,718,1909,4177,1939,721,3674,2851,3711,3499,3767,1655,455],[78,3,49,66,47,13,77,23,31,54,97,27,84,35,54,17,61,46,46,9,21,16,62,49,34,35,0,17,39,23,70,82,77,48,6,44,69,32,3,24,315,253,37,109,255,110,323,357,180,106,97,239,100,332,166,228,459,142,132,174,76,284,75,402,224,417,315,390,119,218,136,312,392,313,128,429,233,215,264,160,2435,0,1146,2566,1351,4337,1136,3265,890,1722,2828,1434,289,4038,2004,3711,3901,2475,2192,1372],[64,2,47,55,48,15,72,14,42,88,63,20,87,26,57,14,75,38,50,14,23,25,62,47,26,31,0,23,24,33,88,77,77,59,10,39,86,32,2,21,215,201,87,77,311,131,273,335,212,83,321,278,177,348,90,352,452,130,245,194,165,293,84,368,288,438,101,315,153,224,122,171,222,272,176,263,238,65,215,77,1816,3564,0,2378,1244,1400,1956,2112,685,2279,4167,1164,1018,2623,2275,2614,2386,2490,552,1588],[83,2,35,64,58,8,46,26,38,65,69,15,56,18,42,11,74,50,39,8,26,30,60,46,25,33,0,17,40,29,94,75,59,42,11,59,92,37,2,26,341,269,96,81,291,161,235,216,247,112,242,239,109,434,165,224,469,136,65,252,259,95,106,249,324,306,240,264,162,207,97,289,287,266,238,389,223,144,263,228,2093,3049,1235,0,1646,5272,1728,3336,666,1698,3409,1711,662,2386,2055,2293,2452,2796,1368,1345],[44,1,43,42,55,8,60,15,23,75,92,18,53,29,31,18,43,61,14,11,15,25,57,54,28,25,0,26,37,38,102,64,91,20,9,50,95,27,2,8,186,264,85,114,292,128,243,306,228,141,254,278,109,284,90,257,277,112,144,264,287,313,95,243,303,319,232,367,136,164,108,277,315,324,135,468,329,248,227,170,3214,2304,816,2027,0,2818,1636,3385,732,1238,4189,1555,747,2211,2392,3146,3615,2687,1201,1386],[58,2,65,48,37,15,50,18,39,66,64,26,94,30,47,11,48,50,28,11,15,22,69,49,27,35,0,17,32,35,81,52,86,76,8,40,100,41,2,25,345,291,103,93,309,207,268,320,238,139,227,393,176,439,87,347,454,154,237,238,174,309,109,392,396,442,101,244,147,216,133,312,252,280,182,342,330,65,151,77,2229,2991,341,1592,1552,0,1016,2908,820,1384,3700,1035,893,3429,2916,3526,2584,3466,552,1692],[47,3,41,59,58,12,52,25,39,81,76,26,57,19,15,18,59,43,36,14,20,18,83,44,25,31,0,23,38,30,60,101,84,58,11,33,57,36,3,25,251,288,84,80,231,123,86,399,195,39,324,422,136,376,166,279,439,109,208,275,203,330,71,324,111,283,204,116,152,196,48,258,100,226,184,334,223,158,262,154,2696,3963,728,2870,1638,4047,0,1839,848,2103,3921,511,643,3605,2891,2870,4587,3446,1285,1144],[59,3,50,43,49,13,65,7,26,23,79,25,79,32,30,16,64,45,46,8,15,18,89,28,30,23,0,21,26,35,26,81,96,48,8,39,79,34,2,22,242,291,120,79,258,126,182,351,278,154,370,379,190,322,121,271,118,132,207,329,183,312,98,407,386,458,234,433,136,162,166,177,317,233,195,460,201,197,254,210,2431,2853,1133,1814,1280,4985,1592,0,563,1512,1116,1367,704,2875,3209,3417,2354,2989,2198,1499],[85,2,49,67,42,11,54,18,37,63,94,14,80,27,55,16,64,51,48,11,18,28,58,14,33,10,0,15,41,23,95,81,29,55,3,31,108,30,3,23,304,209,128,73,229,115,312,384,238,104,294,398,135,314,171,106,289,125,229,300,228,258,34,275,408,346,393,387,44,206,102,265,292,207,161,324,328,210,71,188,2712,2935,1054,1769,1423,3929,1236,2234,0,1893,3068,1058,614,2538,2221,2128,2789,2425,1646,1720],[84,3,61,54,56,13,74,15,39,86,90,27,94,25,48,15,44,49,45,12,19,20,79,34,33,35,0,20,34,26,77,62,73,60,6,47,86,34,3,30,226,211,81,115,288,142,269,223,264,99,375,319,105,273,165,332,270,39,155,215,229,276,130,241,346,349,257,382,164,171,139,236,370,303,64,119,201,144,150,192,2890,3458,1219,3143,1900,5206,1887,2684,523,0,4119,1526,917,3140,1861,3196,3724,3065,1985,1202],[78,3,40,51,34,8,54,7,32,23,94,24,85,18,42,16,51,44,46,15,25,17,76,32,35,36,0,26,35,38,26,80,78,66,6,51,88,27,2,24,198,361,119,115,240,185,262,218,178,112,361,382,116,411,166,411,118,137,175,288,282,232,115,379,238,364,366,311,148,142,109,262,346,231,230,289,181,218,263,237,3032,3264,923,2997,1022,4853,1912,891,784,2182,0,1711,630,3963,2117,2395,3186,2482,1665,1093],[76,3,38,54,45,11,54,16,41,69,100,23,64,35,15,10,53,49,54,14,14,20,57,39,20,35,0,21,36,36,81,53,94,52,11,59,88,34,3,17,300,207,94,97,213,197,86,252,176,39,292,242,129,406,163,393,428,103,224,187,258,289,71,397,111,284,387,116,96,141,48,305,100,309,248,398,257,196,163,271,2024,2342,1255,2635,1150,3732,504,3230,1013,1484,2784,0,808,3398,1993,2606,3441,3780,1506,1436],[51,2,65,36,54,8,45,14,34,57,93,23,52,23,49,18,65,51,43,8,25,23,56,33,18,24,0,14,31,23,94,84,110,57,10,59,56,30,2,28,212,376,37,120,170,217,309,318,255,144,97,321,97,387,118,399,396,122,237,258,76,321,93,378,389,402,400,378,91,186,129,272,243,212,233,238,264,229,232,171,2118,1052,804,1754,2004,5468,1692,1783,675,1448,2899,1907,0,2270,2196,3018,2436,3769,2036,1422],[49,2,63,34,61,15,59,21,29,56,80,21,59,29,37,14,78,50,29,15,22,26,74,54,25,29,0,18,40,40,71,86,113,61,8,15,71,47,3,26,192,232,121,121,168,129,275,308,253,133,386,263,48,447,102,290,452,107,140,302,199,350,111,381,298,330,265,317,158,141,146,253,210,318,200,374,303,229,280,181,3210,3497,785,2471,1211,5038,1127,2876,692,1391,2501,1692,859,0,824,3344,3142,1987,1382,1400],[44,3,58,66,52,12,46,23,34,82,62,20,64,28,39,12,57,42,52,12,20,25,99,55,20,25,0,27,43,23,61,63,72,66,8,15,61,24,2,20,349,238,101,81,184,216,332,274,186,107,371,276,48,447,131,248,420,100,172,295,153,321,85,224,313,377,310,292,114,224,169,276,351,342,251,355,199,199,164,161,2648,4012,1187,3059,1679,4459,1662,2171,696,2350,3604,1039,750,1012,0,2580,3191,3172,1124,1360],[64,3,60,50,59,9,77,23,35,49,67,20,62,34,50,16,64,50,34,9,19,23,95,37,19,26,0,20,22,11,81,63,64,55,8,44,97,42,2,28,247,349,112,101,311,142,336,279,78,94,204,342,167,296,123,220,466,81,206,312,247,296,114,289,303,437,350,372,167,224,133,82,325,192,143,334,294,149,221,229,2558,3033,905,1790,1111,5303,2010,2076,929,1575,4341,1369,632,2939,2983,0,2332,2322,1383,1509],[70,3,51,64,62,12,20,17,37,61,27,27,64,9,44,11,41,47,54,8,18,21,69,44,31,34,0,7,40,28,98,26,105,65,6,57,85,42,2,29,297,309,143,121,308,168,264,257,203,84,283,272,128,334,134,421,387,129,140,238,294,289,110,421,429,459,265,381,149,169,179,310,271,246,194,466,264,193,238,165,3257,3866,885,2113,1582,3750,1623,2519,695,2163,2998,1534,672,3185,3045,3225,0,2549,1938,1343],[77,3,35,62,17,4,52,14,37,56,67,25,55,24,56,15,69,34,52,4,18,23,68,55,32,22,0,25,26,35,55,99,83,41,7,39,95,45,2,27,91,374,91,95,220,55,297,339,253,140,383,106,147,273,151,381,417,97,206,183,211,191,68,267,417,399,311,354,129,208,115,308,303,264,184,441,347,207,257,174,2840,2883,1303,1815,1310,3423,1705,2071,767,1402,4463,1520,827,2823,2380,2260,4253,0,2093,1706],[49,3,36,40,34,10,45,23,26,66,104,24,72,31,44,19,47,54,42,15,14,16,61,39,34,32,0,22,36,36,87,95,60,46,9,31,87,28,3,25,274,303,78,83,219,181,225,371,250,82,249,238,145,338,103,244,320,79,203,215,229,232,134,389,387,326,101,267,122,207,187,300,349,282,180,383,274,65,201,77,2286,4050,341,1912,1279,1400,1250,2852,591,1768,3874,1471,758,2583,2296,2759,4031,2563,0,1741],[82,2,65,52,61,8,40,22,39,55,106,21,75,31,33,11,71,57,48,10,7,31,26,39,29,33,0,20,33,42,60,65,89,43,6,33,83,12,3,25,206,341,132,34,311,111,178,216,158,121,261,407,187,429,137,216,400,133,174,221,223,224,76,425,265,279,258,419,99,185,175,241,303,202,225,317,255,178,148,197,831,2714,1267,2985,1268,4665,1611,2874,913,1335,3286,1840,1139,3895,1869,3547,3063,2075,1272,0],];
precedences = [{},{},{29},{97},{},{},{72},{},{},{},{},{36},{17},{},{},{},{68},{},{72},{},{47},{},{77},{},{45},{31},{90},{23},{},{},{},{},{},{},{},{},{},{12,56},{41},{38},{89,78},{},{},{86},{24},{95},{},{},{},{67,69,46},{},{},{50},{},{83},{},{},{},{},{},{},{45},{},{},{},{},{},{6},{59},{},{},{68,47,55},{},{},{},{},{71,13},{26},{},{},{},{},{},{},{},{37},{},{},{62},{6},{27},{},{},{},{},{},{48},{},{26},{},];
required_resource = [[0,3,2,1,0,0,4,3,0,1,0,0,0],[4,4,3,1,3,3,2,3,2,0,3,1,0],[0,4,4,1,0,0,2,3,0,1,0,0,0],[0,3,2,2,3,3,4,0,2,1,0,4,0],[3,3,3,3,2,1,2,4,0,3,4,0,1],[2,2,1,4,3,4,3,2,0,1,3,0,3],[0,0,3,0,2,2,2,0,0,0,2,0,0],[0,0,0,0,0,0,1,0,0,0,2,0,0],[0,3,2,1,0,0,2,2,0,4,0,0,0],[0,0,0,0,0,0,1,0,0,0,3,0,0],[0,0,4,0,3,3,1,0,0,0,1,0,0],[0,4,1,3,4,3,2,0,3,1,0,1,0],[1,4,2,3,4,3,1,4,3,1,1,4,4],[0,0,2,0,2,1,1,0,0,0,1,0,0],[4,3,1,2,0,0,0,0,0,1,1,0,1],[0,4,2,1,0,0,4,3,0,1,0,0,0],[3,1,2,4,4,1,1,4,2,3,4,1,1],[0,3,1,1,0,0,1,1,0,3,0,0,0],[4,4,3,2,2,1,1,4,3,0,3,2,0],[2,4,1,3,2,3,3,3,0,3,4,0,1],[0,0,0,1,0,0,0,0,0,0,0,0,0],[2,3,0,0,0,3,0,0,0,0,0,2,0],[0,0,0,2,0,0,0,0,0,0,0,0,0],[0,4,1,2,3,4,3,4,4,1,1,4,4],[0,4,1,2,1,2,4,0,1,1,0,2,0],[0,4,2,1,4,1,1,3,2,1,3,1,2],[0,0,0,0,4,2,1,4,2,0,0,1,4],[0,0,3,0,4,3,1,0,0,0,1,0,0],[3,4,0,0,0,3,0,0,0,0,0,2,0],[0,0,0,0,3,4,4,1,4,0,0,3,2],[0,0,0,0,0,0,4,0,0,0,1,0,0],[0,0,1,0,4,3,1,0,0,0,3,0,0],[0,3,4,4,3,1,4,2,4,1,1,2,1],[4,2,4,3,2,3,1,2,1,0,2,4,0],[0,4,4,1,2,1,3,3,1,3,3,4,4],[2,0,0,0,3,0,0,0,0,0,0,0,0],[0,3,2,3,1,3,2,0,1,4,0,4,0],[0,0,0,1,0,0,0,0,0,0,0,0,0],[0,3,3,1,2,2,0,2,0,0,0,2,0],[2,4,1,1,1,2,4,3,1,0,2,1,0],[4,2,4,1,3,4,2,3,0,4,2,0,4],[0,1,3,2,0,0,4,4,0,4,0,0,0],[2,3,3,3,4,4,4,2,4,0,1,1,1],[0,0,0,4,0,0,0,0,0,0,0,0,0],[0,1,2,3,0,0,3,2,0,3,0,0,0],[4,3,2,2,2,3,1,1,0,1,2,0,4],[1,2,1,2,0,0,0,0,0,1,3,0,1],[2,1,0,4,1,0,0,4,0,0,0,0,0],[0,0,0,0,1,1,4,2,1,0,0,2,4],[1,4,4,3,0,0,0,0,0,4,3,0,2],[2,4,4,3,1,2,3,1,4,0,3,2,2],[2,2,2,3,2,2,2,4,0,2,2,0,2],[3,0,0,0,4,0,0,0,0,0,0,0,0],[1,2,0,0,0,3,0,0,0,0,0,4,0],[3,0,3,3,1,1,0,2,4,1,3,0,1],[0,2,3,2,4,2,2,1,4,1,3,1,1],[0,0,0,0,0,0,3,0,0,0,2,0,0],[0,0,0,1,0,0,0,0,0,0,0,0,0],[1,3,4,1,3,4,3,1,2,4,0,3,0],[1,4,1,4,3,4,2,2,4,1,4,1,1],[3,1,3,3,1,3,1,4,2,0,3,2,4],[4,2,4,3,2,3,3,1,4,2,0,4,0],[0,4,1,4,4,3,2,1,4,2,4,2,2],[0,3,1,2,3,3,0,3,0,0,0,1,0],[3,3,3,1,0,0,0,0,0,3,1,0,4],[4,2,0,0,0,1,0,0,0,0,0,3,0],[3,3,2,1,4,0,2,0,2,1,4,1,2],[4,3,4,3,0,0,0,0,0,4,1,0,2],[0,3,2,1,1,3,3,3,4,4,2,1,3],[0,2,4,1,0,0,1,3,0,4,0,0,0],[1,3,2,4,0,0,0,0,0,2,3,0,4],[0,0,0,0,3,1,1,1,4,0,0,4,4],[3,3,2,1,0,0,0,0,0,2,1,0,3],[2,0,4,3,1,4,0,2,4,4,2,0,1],[0,0,0,3,0,0,0,0,0,0,0,0,0],[0,0,0,2,0,0,0,0,0,0,0,0,0],[1,1,0,0,0,1,0,0,0,0,0,4,0],[3,2,2,1,3,0,1,0,4,3,4,3,3],[0,3,1,4,1,1,4,4,1,4,2,4,1],[4,3,2,4,2,0,1,0,4,3,3,3,4],[0,0,0,3,0,0,0,0,0,0,0,0,0],[4,3,4,2,2,3,2,3,1,0,1,4,2],[3,1,4,2,3,0,1,0,1,4,3,2,1],[2,3,1,1,3,4,3,2,2,3,0,2,0],[3,4,4,3,4,1,4,1,3,0,4,3,0],[2,4,4,3,4,0,4,0,1,1,2,1,2],[3,3,3,1,0,0,0,0,0,4,1,0,4],[0,0,0,0,0,0,3,0,0,0,3,0,0],[0,4,4,3,1,2,3,1,4,1,4,4,1],[0,0,0,4,0,0,0,0,0,0,0,0,0],[0,0,0,0,0,0,3,0,0,0,1,0,0],[3,2,1,3,0,0,0,0,0,1,2,0,1],[3,4,4,1,2,4,4,1,3,0,4,2,4],[1,0,0,0,3,0,0,0,0,0,0,0,0],[3,0,0,0,3,0,0,0,0,0,0,0,0],[0,0,0,0,3,1,1,4,4,0,0,4,1],[0,0,1,0,3,3,4,0,0,0,3,0,0],[3,3,4,3,2,1,1,3,0,1,1,0,3],[1,1,1,2,3,0,3,0,2,2,2,1,4],[0,0,0,2,0,0,0,0,0,0,0,0,0],];
n_res_periods = [20,102,19,69,16,18,12,14,11,11,77,85,13,];
res_period_start = [[0,10407,20814,31221,41628,52035,62442,72849,83256,93663,104070,114477,124884,135291,145698,156105,166512,176919,187326,197733,0,0,0,0,0,0,0,0,0,0,0,0,0,0,0,0,0,0,0,0,0,0,0,0,0,0,0,0,0,0,0,0,0,0,0,0,0,0,0,0,0,0,0,0,0,0,0,0,0,0,0,0,0,0,0,0,0,0,0,0,0,0,0,0,0,0,0,0,0,0,0,0,0,0,0,0,0,0,0,0,0,0],[0,1970,3940,5910,7880,9850,11820,13790,15760,17730,19700,21670,23640,25610,27580,29550,31520,33490,35460,37430,39400,41370,43340,45310,47280,49250,51220,53190,55160,57130,59100,61070,63040,65010,66980,68950,70920,72890,74860,76830,78800,80770,82740,84710,86680,88650,90620,92590,94560,96530,98500,100470,102440,104410,106380,108350,110320,112290,114260,116230,118200,120170,122140,124110,126080,128050,130020,131990,133960,135930,137900,139870,141840,143810,145780,147750,149720,151690,153660,155630,157600,159570,161540,163510,165480,167450,169420,171390,173360,175330,177300,179270,181240,183210,185180,187150,189120,191090,193060,195030,197000,198970],[0,10778,21556,32334,43112,53890,64668,75446,86224,97002,107780,118558,129336,140114,150892,161670,172448,183226,194004,0,0,0,0,0,0,0,0,0,0,0,0,0,0,0,0,0,0,0,0,0,0,0,0,0,0,0,0,0,0,0,0,0,0,0,0,0,0,0,0,0,0,0,0,0,0,0,0,0,0,0,0,0,0,0,0,0,0,0,0,0,0,0,0,0,0,0,0,0,0,0,0,0,0,0,0,0,0,0,0,0,0,0],[0,2929,5858,8787,11716,14645,17574,20503,23432,26361,29290,32219,35148,38077,41006,43935,46864,49793,52722,55651,58580,61509,64438,67367,70296,73225,76154,79083,82012,84941,87870,90799,93728,96657,99586,102515,105444,108373,111302,114231,117160,120089,123018,125947,128876,131805,134734,137663,140592,143521,146450,149379,152308,155237,158166,161095,164024,166953,169882,172811,175740,178669,181598,184527,187456,190385,193314,196243,199172,0,0,0,0,0,0,0,0,0,0,0,0,0,0,0,0,0,0,0,0,0,0,0,0,0,0,0,0,0,0,0,0,0],[0,12659,25318,37977,50636,63295,75954,88613,101272,113931,126590,139249,151908,164567,177226,189885,0,0,0,0,0,0,0,0,0,0,0,0,0,0,0,0,0,0,0,0,0,0,0,0,0,0,0,0,0,0,0,0,0,0,0,0,0,0,0,0,0,0,0,0,0,0,0,0,0,0,0,0,0,0,0,0,0,0,0,0,0,0,0,0,0,0,0,0,0,0,0,0,0,0,0,0,0,0,0,0,0,0,0,0,0,0],[0,11213,22426,33639,44852,56065,67278,78491,89704,100917,112130,123343,134556,145769,156982,168195,179408,190621,0,0,0,0,0,0,0,0,0,0,0,0,0,0,0,0,0,0,0,0,0,0,0,0,0,0,0,0,0,0,0,0,0,0,0,0,0,0,0,0,0,0,0,0,0,0,0,0,0,0,0,0,0,0,0,0,0,0,0,0,0,0,0,0,0,0,0,0,0,0,0,0,0,0,0,0,0,0,0,0,0,0,0,0],[0,17333,34666,51999,69332,86665,103998,121331,138664,155997,173330,190663,0,0,0,0,0,0,0,0,0,0,0,0,0,0,0,0,0,0,0,0,0,0,0,0,0,0,0,0,0,0,0,0,0,0,0,0,0,0,0,0,0,0,0,0,0,0,0,0,0,0,0,0,0,0,0,0,0,0,0,0,0,0,0,0,0,0,0,0,0,0,0,0,0,0,0,0,0,0,0,0,0,0,0,0,0,0,0,0,0,0],[0,14327,28654,42981,57308,71635,85962,100289,114616,128943,143270,157597,171924,186251,0,0,0,0,0,0,0,0,0,0,0,0,0,0,0,0,0,0,0,0,0,0,0,0,0,0,0,0,0,0,0,0,0,0,0,0,0,0,0,0,0,0,0,0,0,0,0,0,0,0,0,0,0,0,0,0,0,0,0,0,0,0,0,0,0,0,0,0,0,0,0,0,0,0,0,0,0,0,0,0,0,0,0,0,0,0,0,0],[0,19825,39650,59475,79300,99125,118950,138775,158600,178425,198250,0,0,0,0,0,0,0,0,0,0,0,0,0,0,0,0,0,0,0,0,0,0,0,0,0,0,0,0,0,0,0,0,0,0,0,0,0,0,0,0,0,0,0,0,0,0,0,0,0,0,0,0,0,0,0,0,0,0,0,0,0,0,0,0,0,0,0,0,0,0,0,0,0,0,0,0,0,0,0,0,0,0,0,0,0,0,0,0,0,0,0],[0,18468,36936,55404,73872,92340,110808,129276,147744,166212,184680,0,0,0,0,0,0,0,0,0,0,0,0,0,0,0,0,0,0,0,0,0,0,0,0,0,0,0,0,0,0,0,0,0,0,0,0,0,0,0,0,0,0,0,0,0,0,0,0,0,0,0,0,0,0,0,0,0,0,0,0,0,0,0,0,0,0,0,0,0,0,0,0,0,0,0,0,0,0,0,0,0,0,0,0,0,0,0,0,0,0,0],[0,2620,5240,7860,10480,13100,15720,18340,20960,23580,26200,28820,31440,34060,36680,39300,41920,44540,47160,49780,52400,55020,57640,60260,62880,65500,68120,70740,73360,75980,78600,81220,83840,86460,89080,91700,94320,96940,99560,102180,104800,107420,110040,112660,115280,117900,120520,123140,125760,128380,131000,133620,136240,138860,141480,144100,146720,149340,151960,154580,157200,159820,162440,165060,167680,170300,172920,175540,178160,180780,183400,186020,188640,191260,193880,196500,199120,0,0,0,0,0,0,0,0,0,0,0,0,0,0,0,0,0,0,0,0,0,0,0,0,0],[0,2359,4718,7077,9436,11795,14154,16513,18872,21231,23590,25949,28308,30667,33026,35385,37744,40103,42462,44821,47180,49539,51898,54257,56616,58975,61334,63693,66052,68411,70770,73129,75488,77847,80206,82565,84924,87283,89642,92001,94360,96719,99078,101437,103796,106155,108514,110873,113232,115591,117950,120309,122668,125027,127386,129745,132104,134463,136822,139181,141540,143899,146258,148617,150976,153335,155694,158053,160412,162771,165130,167489,169848,172207,174566,176925,179284,181643,184002,186361,188720,191079,193438,195797,198156,0,0,0,0,0,0,0,0,0,0,0,0,0,0,0,0,0],[0,16296,32592,48888,65184,81480,97776,114072,130368,146664,162960,179256,195552,0,0,0,0,0,0,0,0,0,0,0,0,0,0,0,0,0,0,0,0,0,0,0,0,0,0,0,0,0,0,0,0,0,0,0,0,0,0,0,0,0,0,0,0,0,0,0,0,0,0,0,0,0,0,0,0,0,0,0,0,0,0,0,0,0,0,0,0,0,0,0,0,0,0,0,0,0,0,0,0,0,0,0,0,0,0,0,0,0],];
res_period_end = [[10407,20814,31221,41628,52035,62442,72849,83256,93663,104070,114477,124884,135291,145698,156105,166512,176919,187326,197733,200000,0,0,0,0,0,0,0,0,0,0,0,0,0,0,0,0,0,0,0,0,0,0,0,0,0,0,0,0,0,0,0,0,0,0,0,0,0,0,0,0,0,0,0,0,0,0,0,0,0,0,0,0,0,0,0,0,0,0,0,0,0,0,0,0,0,0,0,0,0,0,0,0,0,0,0,0,0,0,0,0,0,0],[1970,3940,5910,7880,9850,11820,13790,15760,17730,19700,21670,23640,25610,27580,29550,31520,33490,35460,37430,39400,41370,43340,45310,47280,49250,51220,53190,55160,57130,59100,61070,63040,65010,66980,68950,70920,72890,74860,76830,78800,80770,82740,84710,86680,88650,90620,92590,94560,96530,98500,100470,102440,104410,106380,108350,110320,112290,114260,116230,118200,120170,122140,124110,126080,128050,130020,131990,133960,135930,137900,139870,141840,143810,145780,147750,149720,151690,153660,155630,157600,159570,161540,163510,165480,167450,169420,171390,173360,175330,177300,179270,181240,183210,185180,187150,189120,191090,193060,195030,197000,198970,200000],[10778,21556,32334,43112,53890,64668,75446,86224,97002,107780,118558,129336,140114,150892,161670,172448,183226,194004,200000,0,0,0,0,0,0,0,0,0,0,0,0,0,0,0,0,0,0,0,0,0,0,0,0,0,0,0,0,0,0,0,0,0,0,0,0,0,0,0,0,0,0,0,0,0,0,0,0,0,0,0,0,0,0,0,0,0,0,0,0,0,0,0,0,0,0,0,0,0,0,0,0,0,0,0,0,0,0,0,0,0,0,0],[2929,5858,8787,11716,14645,17574,20503,23432,26361,29290,32219,35148,38077,41006,43935,46864,49793,52722,55651,58580,61509,64438,67367,70296,73225,76154,79083,82012,84941,87870,90799,93728,96657,99586,102515,105444,108373,111302,114231,117160,120089,123018,125947,128876,131805,134734,137663,140592,143521,146450,149379,152308,155237,158166,161095,164024,166953,169882,172811,175740,178669,181598,184527,187456,190385,193314,196243,199172,200000,0,0,0,0,0,0,0,0,0,0,0,0,0,0,0,0,0,0,0,0,0,0,0,0,0,0,0,0,0,0,0,0,0],[12659,25318,37977,50636,63295,75954,88613,101272,113931,126590,139249,151908,164567,177226,189885,200000,0,0,0,0,0,0,0,0,0,0,0,0,0,0,0,0,0,0,0,0,0,0,0,0,0,0,0,0,0,0,0,0,0,0,0,0,0,0,0,0,0,0,0,0,0,0,0,0,0,0,0,0,0,0,0,0,0,0,0,0,0,0,0,0,0,0,0,0,0,0,0,0,0,0,0,0,0,0,0,0,0,0,0,0,0,0],[11213,22426,33639,44852,56065,67278,78491,89704,100917,112130,123343,134556,145769,156982,168195,179408,190621,200000,0,0,0,0,0,0,0,0,0,0,0,0,0,0,0,0,0,0,0,0,0,0,0,0,0,0,0,0,0,0,0,0,0,0,0,0,0,0,0,0,0,0,0,0,0,0,0,0,0,0,0,0,0,0,0,0,0,0,0,0,0,0,0,0,0,0,0,0,0,0,0,0,0,0,0,0,0,0,0,0,0,0,0,0],[17333,34666,51999,69332,86665,103998,121331,138664,155997,173330,190663,200000,0,0,0,0,0,0,0,0,0,0,0,0,0,0,0,0,0,0,0,0,0,0,0,0,0,0,0,0,0,0,0,0,0,0,0,0,0,0,0,0,0,0,0,0,0,0,0,0,0,0,0,0,0,0,0,0,0,0,0,0,0,0,0,0,0,0,0,0,0,0,0,0,0,0,0,0,0,0,0,0,0,0,0,0,0,0,0,0,0,0],[14327,28654,42981,57308,71635,85962,100289,114616,128943,143270,157597,171924,186251,200000,0,0,0,0,0,0,0,0,0,0,0,0,0,0,0,0,0,0,0,0,0,0,0,0,0,0,0,0,0,0,0,0,0,0,0,0,0,0,0,0,0,0,0,0,0,0,0,0,0,0,0,0,0,0,0,0,0,0,0,0,0,0,0,0,0,0,0,0,0,0,0,0,0,0,0,0,0,0,0,0,0,0,0,0,0,0,0,0],[19825,39650,59475,79300,99125,118950,138775,158600,178425,198250,200000,0,0,0,0,0,0,0,0,0,0,0,0,0,0,0,0,0,0,0,0,0,0,0,0,0,0,0,0,0,0,0,0,0,0,0,0,0,0,0,0,0,0,0,0,0,0,0,0,0,0,0,0,0,0,0,0,0,0,0,0,0,0,0,0,0,0,0,0,0,0,0,0,0,0,0,0,0,0,0,0,0,0,0,0,0,0,0,0,0,0,0],[18468,36936,55404,73872,92340,110808,129276,147744,166212,184680,200000,0,0,0,0,0,0,0,0,0,0,0,0,0,0,0,0,0,0,0,0,0,0,0,0,0,0,0,0,0,0,0,0,0,0,0,0,0,0,0,0,0,0,0,0,0,0,0,0,0,0,0,0,0,0,0,0,0,0,0,0,0,0,0,0,0,0,0,0,0,0,0,0,0,0,0,0,0,0,0,0,0,0,0,0,0,0,0,0,0,0,0],[2620,5240,7860,10480,13100,15720,18340,20960,23580,26200,28820,31440,34060,36680,39300,41920,44540,47160,49780,52400,55020,57640,60260,62880,65500,68120,70740,73360,75980,78600,81220,83840,86460,89080,91700,94320,96940,99560,102180,104800,107420,110040,112660,115280,117900,120520,123140,125760,128380,131000,133620,136240,138860,141480,144100,146720,149340,151960,154580,157200,159820,162440,165060,167680,170300,172920,175540,178160,180780,183400,186020,188640,191260,193880,196500,199120,200000,0,0,0,0,0,0,0,0,0,0,0,0,0,0,0,0,0,0,0,0,0,0,0,0,0],[2359,4718,7077,9436,11795,14154,16513,18872,21231,23590,25949,28308,30667,33026,35385,37744,40103,42462,44821,47180,49539,51898,54257,56616,58975,61334,63693,66052,68411,70770,73129,75488,77847,80206,82565,84924,87283,89642,92001,94360,96719,99078,101437,103796,106155,108514,110873,113232,115591,117950,120309,122668,125027,127386,129745,132104,134463,136822,139181,141540,143899,146258,148617,150976,153335,155694,158053,160412,162771,165130,167489,169848,172207,174566,176925,179284,181643,184002,186361,188720,191079,193438,195797,198156,200000,0,0,0,0,0,0,0,0,0,0,0,0,0,0,0,0,0],[16296,32592,48888,65184,81480,97776,114072,130368,146664,162960,179256,195552,200000,0,0,0,0,0,0,0,0,0,0,0,0,0,0,0,0,0,0,0,0,0,0,0,0,0,0,0,0,0,0,0,0,0,0,0,0,0,0,0,0,0,0,0,0,0,0,0,0,0,0,0,0,0,0,0,0,0,0,0,0,0,0,0,0,0,0,0,0,0,0,0,0,0,0,0,0,0,0,0,0,0,0,0,0,0,0,0,0,0],];
res_period_capacity = [[25,24,24,23,21,19,21,22,18,16,14,15,16,16,13,16,17,16,18,17,0,0,0,0,0,0,0,0,0,0,0,0,0,0,0,0,0,0,0,0,0,0,0,0,0,0,0,0,0,0,0,0,0,0,0,0,0,0,0,0,0,0,0,0,0,0,0,0,0,0,0,0,0,0,0,0,0,0,0,0,0,0,0,0,0,0,0,0,0,0,0,0,0,0,0,0,0,0,0,0,0,0],[16,16,15,15,16,15,17,16,14,12,13,15,13,14,13,14,16,14,13,14,15,13,11,0,11,15,16,18,19,19,18,17,16,18,16,15,15,14,16,17,16,15,18,20,16,13,15,18,16,19,20,22,20,22,18,15,18,19,20,21,23,22,0,0,0,20,17,17,18,17,19,21,0,0,0,22,19,16,15,17,14,15,16,14,0,16,0,17,16,15,16,14,13,13,0,13,15,15,14,17,18,19],[16,14,17,18,16,17,16,14,14,13,14,14,13,16,18,18,20,0,19,0,0,0,0,0,0,0,0,0,0,0,0,0,0,0,0,0,0,0,0,0,0,0,0,0,0,0,0,0,0,0,0,0,0,0,0,0,0,0,0,0,0,0,0,0,0,0,0,0,0,0,0,0,0,0,0,0,0,0,0,0,0,0,0,0,0,0,0,0,0,0,0,0,0,0,0,0,0,0,0,0,0,0],[25,24,22,21,18,15,18,19,20,17,19,18,17,17,16,15,18,17,16,19,19,20,18,15,17,0,19,16,18,19,18,0,0,17,16,14,15,17,15,17,19,20,20,20,0,20,0,0,18,0,16,17,17,17,17,16,15,0,17,17,17,18,0,15,15,12,14,12,14,0,0,0,0,0,0,0,0,0,0,0,0,0,0,0,0,0,0,0,0,0,0,0,0,0,0,0,0,0,0,0,0,0],[9,10,11,10,14,12,15,15,15,13,12,15,0,15,0,0,0,0,0,0,0,0,0,0,0,0,0,0,0,0,0,0,0,0,0,0,0,0,0,0,0,0,0,0,0,0,0,0,0,0,0,0,0,0,0,0,0,0,0,0,0,0,0,0,0,0,0,0,0,0,0,0,0,0,0,0,0,0,0,0,0,0,0,0,0,0,0,0,0,0,0,0,0,0,0,0,0,0,0,0,0,0],[18,19,18,16,15,16,17,16,15,13,15,16,0,18,17,15,17,14,0,0,0,0,0,0,0,0,0,0,0,0,0,0,0,0,0,0,0,0,0,0,0,0,0,0,0,0,0,0,0,0,0,0,0,0,0,0,0,0,0,0,0,0,0,0,0,0,0,0,0,0,0,0,0,0,0,0,0,0,0,0,0,0,0,0,0,0,0,0,0,0,0,0,0,0,0,0,0,0,0,0,0,0],[23,22,21,20,22,18,0,17,0,0,15,15,0,0,0,0,0,0,0,0,0,0,0,0,0,0,0,0,0,0,0,0,0,0,0,0,0,0,0,0,0,0,0,0,0,0,0,0,0,0,0,0,0,0,0,0,0,0,0,0,0,0,0,0,0,0,0,0,0,0,0,0,0,0,0,0,0,0,0,0,0,0,0,0,0,0,0,0,0,0,0,0,0,0,0,0,0,0,0,0,0,0],[7,11,13,16,17,18,18,18,0,20,16,13,13,15,0,0,0,0,0,0,0,0,0,0,0,0,0,0,0,0,0,0,0,0,0,0,0,0,0,0,0,0,0,0,0,0,0,0,0,0,0,0,0,0,0,0,0,0,0,0,0,0,0,0,0,0,0,0,0,0,0,0,0,0,0,0,0,0,0,0,0,0,0,0,0,0,0,0,0,0,0,0,0,0,0,0,0,0,0,0,0,0],[4,6,7,9,10,13,15,13,11,14,14,0,0,0,0,0,0,0,0,0,0,0,0,0,0,0,0,0,0,0,0,0,0,0,0,0,0,0,0,0,0,0,0,0,0,0,0,0,0,0,0,0,0,0,0,0,0,0,0,0,0,0,0,0,0,0,0,0,0,0,0,0,0,0,0,0,0,0,0,0,0,0,0,0,0,0,0,0,0,0,0,0,0,0,0,0,0,0,0,0,0,0],[4,7,7,9,8,11,11,10,10,14,15,0,0,0,0,0,0,0,0,0,0,0,0,0,0,0,0,0,0,0,0,0,0,0,0,0,0,0,0,0,0,0,0,0,0,0,0,0,0,0,0,0,0,0,0,0,0,0,0,0,0,0,0,0,0,0,0,0,0,0,0,0,0,0,0,0,0,0,0,0,0,0,0,0,0,0,0,0,0,0,0,0,0,0,0,0,0,0,0,0,0,0],[24,22,19,20,22,21,18,18,19,21,18,20,21,20,20,17,19,19,19,19,0,21,21,20,18,15,17,17,17,16,15,15,15,18,15,15,12,11,0,9,11,14,17,14,0,12,0,14,11,14,16,0,19,20,18,20,0,18,18,16,0,14,12,10,13,16,13,14,16,15,13,0,14,11,10,12,12,0,0,0,0,0,0,0,0,0,0,0,0,0,0,0,0,0,0,0,0,0,0,0,0,0],[14,14,14,14,14,13,15,17,16,17,16,18,17,18,0,0,17,19,17,14,17,0,16,19,18,20,21,18,15,15,12,16,18,18,15,17,15,12,14,0,15,13,0,13,14,12,12,10,9,0,10,14,15,14,12,0,11,12,10,11,13,12,0,15,16,16,16,0,18,0,16,15,0,15,17,19,0,0,0,0,20,0,0,0,17,0,0,0,0,0,0,0,0,0,0,0,0,0,0,0,0,0],[24,21,20,20,19,19,0,17,17,18,17,18,20,0,0,0,0,0,0,0,0,0,0,0,0,0,0,0,0,0,0,0,0,0,0,0,0,0,0,0,0,0,0,0,0,0,0,0,0,0,0,0,0,0,0,0,0,0,0,0,0,0,0,0,0,0,0,0,0,0,0,0,0,0,0,0,0,0,0,0,0,0,0,0,0,0,0,0,0,0,0,0,0,0,0,0,0,0,0,0,0,0],];
