n_jobs = 10;
n_machines = 3;
n_resources = 0;
max_periods = 0;
processing = [18,39,39,32,227,121,189,211,1589,1151];
due = [43,113,230,656,243,59,1042,1229,5652,1432];
initial_setup = [14,25,13,6,95,113,85,112,1387,864];
eligible = [{3},{2,3},{2},{2},{2,3},{1,2,3},{1},{1,2},{1,2,3},{3},];
setup = [[0,21,24,6,156,118,65,82,2941,1086],[62,0,77,20,261,185,65,138,4739,1520],[19,22,0,14,274,239,65,168,4857,500],[19,18,66,0,77,306,65,114,5156,500],[73,31,63,6,0,296,65,152,5131,1310],[62,28,74,15,217,0,256,182,3976,1773],[19,9,24,6,77,233,0,265,1403,500],[19,18,59,17,230,346,152,0,3126,500],[73,23,77,21,204,264,248,254,0,1449],[71,26,24,6,177,159,65,82,3108,0],];
precedences = [{},{},{},{8},{},{},{},{5},{},{5},];
required_resource = [[],[],[],[],[],[],[],[],[],[],];
n_res_periods = [];
res_period_start = [];
res_period_end = [];
res_period_capacity = [];
