n_jobs = 10;
n_machines = 4;
n_resources = 1;
max_periods = 13;
processing = [23,27,41,28,120,131,144,228,2700,2276];
due = [0,44,17,22,1099,317,93,796,2277,1385];
initial_setup = [23,25,29,23,38,118,83,98,635,1302];
eligible = [{1,3},{1,2,3,4},{1,2,3,4},{2,3,4},{2},{1,2,3,4},{1,2,3,4},{1,2,3,4},{1,2,3},{2,4},];
setup = [[0,56,90,70,117,267,268,287,2614,780],[56,0,83,93,274,409,233,334,3956,1849],[64,51,0,97,436,267,199,324,3152,1587],[78,47,90,0,309,434,225,429,2883,1991],[26,48,26,29,0,380,147,231,1448,1849],[102,48,97,73,339,0,240,452,3486,1887],[62,51,90,59,459,327,0,115,1187,2704],[62,47,92,104,355,275,90,0,1187,2173],[55,47,96,78,297,320,90,115,0,1568],[26,41,92,29,393,276,173,336,1187,0],];
precedences = [{},{},{},{},{4},{10},{},{},{},{9},];
required_resource = [[1],[2],[3],[0],[0],[3],[4],[3],[2],[0],];
n_res_periods = [13,];
res_period_start = [[0,1644,3288,4932,6576,8220,9864,11508,13152,14796,16440,18084,19728],];
res_period_end = [[1644,3288,4932,6576,8220,9864,11508,13152,14796,16440,18084,19728,20000],];
res_period_capacity = [[15,13,0,16,0,14,17,16,17,19,17,17,15],];
