n_jobs = 10;
n_machines = 3;
n_resources = 0;
max_periods = 0;
processing = [45,31,49,20,171,164,177,117,2074,1739];
due = [1129,42,46,5,913,3295,170,322,3101,2677];
initial_setup = [14,23,24,25,103,73,109,119,1427,769];
eligible = [{1,2,3},{1,3},{1,2,3},{1,2,3},{2},{3},{1,2,3},{1,2,3},{1,2,3},{2},];
setup = [[0,86,70,27,394,307,297,223,3780,514],[80,0,70,24,111,218,290,198,4757,166],[67,67,0,21,223,275,259,168,4147,337],[101,82,65,0,346,296,298,235,5239,600],[62,22,29,9,0,109,290,95,3764,547],[29,50,93,11,111,0,326,125,2092,166],[114,53,101,35,303,222,0,235,5022,512],[106,76,68,24,286,412,203,0,5393,459],[93,75,61,27,257,252,247,154,0,563],[89,22,29,9,343,109,174,127,5202,0],];
precedences = [{9},{},{},{},{},{8},{},{9,1},{},{},];
required_resource = [[],[],[],[],[],[],[],[],[],[],];
n_res_periods = [];
res_period_start = [];
res_period_end = [];
res_period_capacity = [];
