n_jobs = 100;
n_machines = 6;
n_resources = 15;
max_periods = 99;
processing = [11,28,51,48,28,54,49,43,54,12,34,49,58,57,53,47,9,12,16,59,46,52,54,36,48,59,58,49,46,53,1,55,53,21,47,56,59,28,56,58,155,234,144,220,236,208,176,239,219,210,177,230,201,196,231,223,228,237,88,125,114,218,153,223,212,173,199,114,135,199,131,175,228,227,239,210,207,196,235,198,2871,1584,2608,2267,297,2454,2842,2712,2690,2822,1551,2384,2426,2489,2709,2424,2404,2266,2836,2314];
due = [6,20,2327,17,63,24,5459,86,111,12345,56,82,11105,115,3218,124,254,19757,93,10136,12155,331,38,181,265,125,322,372,17143,5669,249,180,12895,313,254,267,207,8017,4986,8932,742,11325,541,994,790,372,1572,890,501,1485,1461,1457,20176,2201,11337,954,1021,1770,1052,14965,16198,1706,1491,1263,12284,938,3302,23041,1298,11126,1591,8906,19935,3351,5305,1892,1777,12269,3791,4166,10098,1126,7095,8583,4909,22035,6911,22058,10461,2787,1374,5916,3544,10909,27273,7298,13166,5604,12199,25399];
initial_setup = [9,13,13,15,15,28,21,23,27,21,28,25,28,25,21,19,19,25,25,12,28,28,16,26,19,28,9,29,1,26,26,26,15,9,26,21,18,7,22,24,102,87,108,117,91,42,102,97,90,83,95,115,82,111,100,103,116,112,76,55,49,80,74,105,110,119,119,75,80,106,113,119,85,114,96,96,107,87,107,117,1435,1333,875,1349,1145,1423,1307,1046,967,1345,846,1377,739,1408,1359,1325,767,1422,1325,1300];
eligible = [{4},{1,2},{1,2,4,6},{1,2,5},{5},{1,2,3,4,6},{1,2,3,4,5,6},{1,2,3,4,5,6},{1,5},{1},{1,2,3,4,5,6},{1,2,3,4,6},{1,4,5},{3,4,6},{1,2,3,4,5,6},{1,2,5,6},{1},{2,4,6},{1,2},{3,4,5,6},{1,2,3,4,5,6},{1,2,6},{1,2,3,4,5},{1,2,3,4,5,6},{1,2,3,4,5,6},{1,2,3,4,5,6},{1,3,4},{1,2,3,5,6},{2},{1,3,4,5,6},{2},{1,2,3,4,5},{1,4},{3,6},{3,4,5,6},{1,3,4,5},{1,3,4,6},{1,3},{1,2,3,4,6},{1,2,3,4,5,6},{1,2,3,4,5,6},{1,2,3,4,5,6},{4,6},{1},{1,2,3,6},{3},{1,2,5},{2,3,6},{1},{1,2,3,4,5,6},{1,3,6},{1,3,4,5,6},{1,2,4,5},{3,4},{3,4,5},{2,3,5,6},{1,2,3,4,5,6},{2,4,5},{4,5},{6},{1},{2,4},{3,4,6},{1,2,3,4,5,6},{2,3,4,5},{1,2,3,4,5,6},{1,3,4,5,6},{3,4},{4,5},{1,2,3,4},{1,2,3},{1,2,3,4,5,6},{1,2,5},{1,2,4,5,6},{1,3,4,5,6},{1,5},{1,2,3,4,5,6},{1,2,3,6},{1,2,3,4},{1,2,3,4,5,6},{1,2,3,4,5,6},{1,2,3,4,5,6},{1,2,3,4,5,6},{2,5},{1},{1,2},{1,2,4,5,6},{1,2,3,4,5,6},{1},{1,2,3,4,5,6},{1,2,3,4,5,6},{1,3,4,5,6},{1,6},{1,2,3,4,5,6},{1,2,4,5,6},{3,4,6},{4,5,6},{1,2,3,4,5,6},{1,2,4,5,6},{5},];
setup = [[0,23,65,26,26,25,98,82,28,4,29,96,53,70,30,26,5,34,28,16,63,25,26,76,29,26,40,24,14,81,17,69,23,15,75,66,52,10,27,29,106,213,242,60,107,92,114,118,114,405,106,111,261,259,220,88,283,288,189,62,118,301,371,328,141,224,252,163,235,101,67,374,103,221,149,85,150,118,109,169,3267,3700,1197,948,131,883,1320,1432,741,1366,3240,3173,859,2224,2228,3813,3279,4209,3643,988],[9,0,57,70,26,77,89,31,67,12,89,101,45,21,29,62,11,27,60,9,38,67,92,28,35,32,63,50,48,48,17,66,59,15,23,30,29,25,38,55,314,225,92,120,366,92,307,155,343,324,241,143,385,103,105,196,225,194,94,62,403,113,118,389,311,294,130,59,104,330,67,117,339,267,105,105,235,270,109,325,3035,3739,3337,948,359,2538,3340,4994,1485,1366,2321,1312,859,1182,1250,1220,1224,1285,2284,988],[29,66,0,72,26,57,90,61,72,13,79,84,68,69,93,63,16,90,79,21,79,80,64,69,50,73,56,67,35,74,53,88,81,15,78,46,52,23,47,78,410,97,278,122,320,92,217,362,355,395,357,233,310,327,237,88,258,261,166,223,293,372,378,474,100,307,227,97,410,287,254,354,387,372,291,130,354,464,266,259,3249,3507,3648,948,312,2259,4052,5445,1769,3214,2715,2942,2004,2666,2645,4849,4295,4919,3491,988],[9,56,75,0,92,69,90,25,28,12,108,103,93,21,98,52,17,27,72,9,46,92,56,70,46,51,53,68,47,30,60,102,50,15,23,79,29,18,38,54,106,318,92,163,397,92,271,196,290,339,260,329,272,103,137,225,245,243,213,62,456,278,118,460,291,284,141,59,139,101,136,281,291,243,325,307,358,434,278,325,3578,2907,4388,3218,500,883,3855,4034,2531,3621,4191,2870,1844,3061,4703,1220,1803,3416,4178,3852],[9,23,22,26,0,25,29,23,33,4,29,28,89,21,66,26,5,27,28,9,26,25,83,48,72,19,21,24,14,27,17,66,23,15,23,67,29,10,15,32,233,279,92,60,107,92,453,118,114,230,106,363,137,103,105,277,422,252,222,62,118,113,118,172,214,342,206,59,158,101,67,156,103,347,168,283,129,118,109,183,1624,1231,2854,2942,131,883,2927,3347,741,4248,3152,3051,859,3094,4855,1220,2577,1285,3432,2410],[25,89,72,98,26,0,81,71,93,13,29,87,63,61,66,26,18,101,75,23,81,89,89,91,76,59,82,50,38,61,52,83,87,38,66,76,72,10,39,88,347,257,298,170,322,364,318,454,439,385,232,225,400,341,345,219,274,376,224,163,243,338,118,314,202,302,112,59,226,310,196,336,347,358,226,154,333,260,391,350,4437,3828,2621,948,395,2570,3431,4664,2659,4670,3637,2865,2752,2579,2806,3347,4160,3986,3851,988],[32,47,66,95,58,97,0,84,87,13,111,88,92,48,104,75,14,68,84,35,95,92,84,71,78,58,81,54,55,71,48,105,48,58,23,109,58,34,52,96,278,380,226,226,275,324,373,465,429,104,106,227,105,340,311,295,311,331,210,175,332,291,331,357,298,413,443,181,239,276,209,454,241,310,373,272,394,300,403,404,1205,4020,4270,3458,131,1853,4892,1432,1965,4492,4645,4121,2848,3989,4889,2944,2638,3659,4618,3629],[22,47,73,54,61,93,90,0,93,11,90,80,29,73,76,77,12,60,99,21,91,61,88,85,25,73,69,54,48,77,62,93,67,38,63,85,94,34,45,81,301,379,285,218,306,217,114,323,301,414,343,285,344,103,371,248,351,277,294,210,400,310,415,475,299,403,277,153,257,342,182,364,275,354,301,287,317,286,363,370,4803,4301,1197,3260,378,3125,4162,5378,2436,4329,3755,3599,2328,4140,4596,3050,3199,3654,4240,3790],[9,23,45,26,88,55,76,23,0,10,29,58,99,21,95,26,18,27,40,9,47,61,74,50,79,46,45,40,14,49,17,96,46,15,23,82,29,16,24,49,106,181,92,150,182,92,338,118,298,235,285,388,227,103,105,325,333,199,229,62,301,113,118,344,225,384,136,59,108,101,89,204,225,307,345,198,124,175,265,300,2621,2867,2962,3722,323,883,3239,3304,2806,2711,3359,1783,2678,3743,4241,1220,2701,2239,4407,2801],[9,23,34,26,26,70,68,23,85,0,29,76,38,21,72,31,17,27,42,9,30,25,26,49,38,44,83,44,14,40,17,29,62,15,23,28,29,18,36,73,230,118,92,201,242,92,118,118,340,104,393,259,276,103,105,88,113,96,94,62,390,113,118,345,100,167,136,59,104,184,141,237,186,157,370,126,112,118,232,102,2407,2988,3245,948,314,3001,2728,3805,2327,1452,2322,1312,1729,1352,1250,1220,1224,2151,1159,988],[27,91,75,70,98,25,80,80,84,13,0,96,100,61,99,26,13,60,108,23,58,56,73,67,83,59,59,94,35,64,66,74,75,36,48,96,73,10,47,112,407,347,358,127,249,329,433,458,334,353,362,252,379,243,366,344,433,286,362,142,381,360,118,341,271,384,112,59,325,364,209,315,287,349,402,195,346,388,395,405,4540,3993,4407,3169,318,2043,4846,4012,1970,5230,4537,4156,2878,3387,3533,3788,3048,3553,3929,3233],[22,55,82,62,26,77,92,65,56,9,73,0,68,82,61,93,11,58,111,20,74,79,52,67,54,67,72,49,40,73,51,102,60,37,75,77,85,27,15,99,379,385,197,239,304,343,278,368,236,411,409,100,359,352,385,252,337,256,230,187,423,405,341,301,286,294,295,191,222,362,219,389,356,302,322,91,392,236,337,302,3626,4572,4117,948,408,3025,3979,5333,2816,5255,4457,3114,2509,2580,3617,2823,1224,3689,1159,988],[19,23,72,26,95,43,64,23,85,15,29,110,0,59,113,32,13,39,28,19,76,70,84,97,25,37,76,42,14,71,17,75,63,15,50,64,30,30,28,48,286,324,313,153,206,92,114,118,362,359,222,250,289,103,308,315,401,240,209,62,287,227,281,268,219,236,191,139,222,314,135,354,224,367,365,248,171,155,188,229,2674,4380,1197,1952,437,2270,3437,3388,2948,4618,3961,3291,1924,3525,3416,4104,4364,3293,4530,2776],[26,23,44,26,26,78,87,63,28,4,62,78,55,0,64,26,5,74,28,28,82,43,35,58,54,19,39,24,14,82,17,88,23,59,81,44,85,22,31,29,258,307,306,60,255,92,114,382,114,338,172,128,254,217,359,284,405,298,203,139,118,285,401,374,170,295,407,161,278,389,153,288,103,238,210,85,360,203,159,254,3033,3883,3536,948,131,883,1320,3745,741,1366,3355,4493,1923,2017,3465,2800,4477,4300,2877,988],[24,23,80,53,72,85,114,91,99,12,68,94,92,67,0,88,19,88,76,32,85,69,81,28,71,57,63,66,41,90,17,108,51,42,66,84,104,38,42,80,266,311,337,228,319,297,361,326,449,350,328,278,223,269,105,238,442,350,248,62,277,113,351,438,349,351,309,182,380,317,67,117,225,303,105,285,377,276,109,270,3577,3403,4128,948,312,2339,3052,5378,1648,4267,4049,3730,859,1182,1250,3834,4383,1285,3560,2883],[9,83,64,72,87,25,86,51,83,11,29,69,79,63,71,0,10,89,68,9,64,94,88,75,76,54,59,89,51,62,52,72,73,15,23,106,29,10,33,80,350,383,313,192,295,92,240,317,251,331,226,223,243,103,105,250,387,270,197,149,436,433,118,320,373,409,112,59,130,331,182,246,240,368,212,175,393,351,286,327,3891,3546,4398,3575,376,2954,4855,5561,2362,4199,3156,2748,2866,3718,3671,2617,2661,3064,4026,3187],[9,23,52,26,26,70,70,23,75,13,29,58,56,21,79,28,0,27,29,9,39,95,27,45,55,35,67,40,14,27,17,29,72,15,23,28,29,27,28,75,176,120,92,148,107,92,173,118,274,145,335,221,233,103,105,88,113,96,94,62,436,113,118,341,100,293,176,59,104,141,118,264,217,240,408,140,157,171,239,102,1408,3236,2143,948,304,2206,2948,5363,1710,1366,2837,1312,2052,1182,1250,1220,1224,2070,1159,988],[20,58,74,102,26,87,92,69,28,4,66,84,74,74,53,85,5,0,93,9,88,46,97,78,32,58,38,95,37,93,45,64,23,15,80,80,54,10,51,79,315,311,359,60,387,92,316,249,114,354,178,100,235,381,270,198,319,358,237,143,118,395,264,299,218,299,256,162,391,325,248,389,262,268,213,85,287,360,232,339,2817,2849,2446,948,131,1896,4231,4553,741,3583,4542,3190,2322,2528,2754,4123,2653,5079,4180,988],[9,58,69,88,26,86,71,23,101,10,61,82,45,21,93,92,10,27,0,9,43,67,63,50,52,19,45,51,42,37,48,59,23,15,23,34,29,17,45,29,246,283,92,196,322,92,298,128,446,409,252,219,317,103,105,167,225,225,94,62,378,418,118,427,332,260,189,59,104,322,138,269,218,172,225,167,212,263,416,304,3522,3728,2709,948,410,3020,3687,3985,2358,1366,3463,1312,1657,1203,1250,1220,1224,2747,2496,988],[22,23,42,26,58,68,70,59,32,4,62,102,77,64,84,26,5,27,28,0,63,30,84,78,80,51,39,24,14,75,17,95,23,15,79,77,115,32,35,63,297,307,319,60,285,253,405,420,114,279,279,263,275,356,324,274,427,335,228,205,118,157,342,364,230,302,390,189,275,374,188,340,103,368,191,235,391,163,143,349,2846,4352,3785,2247,131,883,3666,4357,741,5253,4381,3931,2362,3016,3060,2959,3100,3178,4238,2403],[35,47,82,98,101,77,104,62,78,11,73,97,73,59,80,60,15,97,81,27,0,72,103,95,86,51,58,64,51,79,58,114,57,39,91,63,29,28,46,93,400,258,283,238,336,316,396,389,240,405,332,310,382,324,245,312,113,96,326,236,460,273,385,441,264,414,267,198,222,327,191,380,103,105,271,285,267,369,289,102,3831,4646,3909,2938,327,2857,3792,5209,2643,5044,4745,4892,2768,2390,3226,4057,4707,3484,4099,3804],[9,54,68,102,26,64,60,65,98,4,60,85,58,78,61,99,10,74,57,9,48,0,70,53,32,69,74,55,45,47,55,59,75,15,23,28,29,31,34,112,286,375,205,172,275,92,179,118,240,410,288,161,313,103,105,303,354,222,94,132,247,233,257,429,330,309,163,59,104,255,169,308,399,261,414,171,366,118,295,341,3232,4025,4038,948,323,3197,4124,5233,2594,3390,3018,2241,2333,2484,2688,1656,1224,3459,2797,988],[20,59,50,76,58,89,96,82,75,13,86,99,72,50,96,102,12,33,85,25,82,89,0,110,66,39,49,78,41,71,60,98,77,36,67,108,111,27,36,67,292,288,188,212,267,245,350,465,312,384,415,244,238,250,306,221,419,314,248,62,286,396,465,119,391,319,403,185,317,332,177,384,297,293,239,254,360,386,271,373,3628,3480,4233,2932,440,2990,3914,4852,2252,3418,4574,1312,2700,2629,3877,3111,3238,3727,3206,2957],[21,23,82,87,84,75,81,70,95,8,74,89,89,82,29,95,19,88,101,19,79,81,75,0,78,45,69,85,34,74,17,104,59,32,89,104,59,26,32,102,334,298,341,131,411,297,448,323,373,341,294,261,402,331,105,275,405,230,293,62,280,113,295,386,249,343,375,168,232,331,67,117,215,400,105,283,313,287,109,283,2802,3682,4492,948,424,2564,3995,3965,2632,4846,3902,4648,859,1182,1250,3078,2691,1285,4264,2979],[19,48,83,100,76,81,70,23,103,12,111,102,29,67,96,62,17,105,73,34,81,74,75,94,0,68,71,51,33,86,45,95,62,43,66,75,96,24,58,66,337,307,341,130,320,342,114,328,238,265,415,201,369,103,393,271,385,345,283,229,249,338,321,344,271,388,419,204,289,363,171,347,317,337,216,191,349,337,227,328,3364,4470,1197,3669,400,2823,3713,5542,2538,4318,3986,4844,2241,3014,3047,3093,3032,3577,3806,2091],[20,62,81,82,62,81,88,76,98,14,97,85,74,21,94,68,18,57,28,23,82,97,78,71,82,0,68,92,28,76,65,107,23,51,87,80,62,39,38,29,341,299,358,208,312,92,369,415,340,396,335,238,381,237,315,263,445,378,353,174,349,322,391,378,306,403,401,225,328,378,259,466,350,305,217,274,358,249,279,353,3197,4678,4421,2932,277,3119,3832,5470,2789,1366,4505,3154,2334,4593,4671,2776,4145,3991,3983,2192],[21,23,59,26,26,68,113,49,100,12,60,86,50,63,55,26,10,39,31,23,98,80,27,68,80,41,0,30,14,73,17,53,60,55,90,63,60,27,20,71,230,222,327,225,188,294,175,442,386,361,394,157,411,378,402,271,350,256,94,62,419,224,302,218,169,312,248,159,300,310,208,448,124,361,404,166,231,185,137,322,2533,1231,4094,948,398,2392,3670,4196,2755,3123,1204,3927,1579,3210,2478,3807,4678,2881,2293,988],[9,85,64,71,84,84,71,73,107,9,102,84,61,78,109,79,19,85,60,23,103,95,67,61,89,44,52,0,50,79,39,115,56,43,40,82,69,22,43,69,345,340,309,221,308,329,420,452,378,372,421,283,268,220,375,187,360,223,189,168,387,429,297,287,335,430,277,212,117,294,197,260,346,303,402,241,409,236,432,346,3984,4441,3941,3317,272,2989,3622,5607,2276,5248,4253,2978,2068,3724,3063,2174,2707,3251,4243,2330],[9,63,67,71,26,66,31,23,28,4,93,50,29,21,29,53,5,27,58,9,34,78,89,47,25,19,21,59,0,27,34,69,23,15,23,28,29,10,33,55,251,208,92,60,243,92,347,140,114,397,106,100,242,103,105,162,249,164,94,62,118,321,118,454,320,362,112,59,104,319,146,117,248,251,105,85,220,283,343,354,4135,1673,2678,948,131,2245,4109,3852,741,1366,1204,1312,859,1182,1339,1220,1224,2507,4007,988],[32,23,71,26,26,85,86,59,101,8,77,105,66,60,98,36,5,105,31,20,78,67,92,102,78,38,52,39,14,0,17,75,68,52,72,80,79,39,37,63,356,253,274,205,107,308,290,455,362,368,248,323,326,378,275,296,450,220,213,245,244,210,401,370,158,297,362,127,252,322,186,335,131,342,226,282,316,218,188,326,2532,3161,3933,3392,272,3361,3799,5535,2715,4688,3599,3551,2733,3454,4171,3794,3148,4453,3967,3027],[9,23,87,89,26,79,34,31,28,4,87,81,29,21,29,52,5,27,79,9,26,44,94,28,25,19,21,55,46,27,0,81,23,15,23,28,29,10,59,36,298,207,92,60,341,92,323,128,114,310,106,100,373,103,105,204,241,167,94,62,118,113,118,281,215,430,112,59,104,305,67,117,218,230,105,85,222,381,109,372,2721,1231,2352,948,131,2464,3032,4788,741,1366,1204,1312,859,1182,1250,1220,1224,1285,4189,988],[34,51,68,94,78,96,75,63,78,13,70,95,90,58,86,79,12,31,77,22,79,74,98,77,76,40,56,77,46,56,36,0,54,37,89,76,80,30,57,57,340,364,185,121,262,322,351,375,454,358,351,237,395,405,410,270,405,383,367,62,362,274,463,407,262,108,391,172,389,328,199,403,288,373,303,288,112,431,287,361,4543,4109,4540,2186,403,3523,4352,4622,2184,3828,3906,4931,1638,2396,4823,1220,4675,3632,3053,2538],[18,23,53,26,26,63,86,67,92,11,29,68,62,21,64,31,15,27,28,13,89,71,26,66,55,19,69,46,14,85,17,64,0,15,80,82,36,29,35,29,249,358,183,168,266,92,186,118,358,391,287,176,360,208,378,88,272,234,141,62,325,182,223,220,105,246,205,114,341,322,96,296,166,337,419,130,171,178,267,133,1660,4268,3503,948,415,2667,3829,4411,1723,1366,4141,4802,2729,2127,2683,2601,3631,3601,2708,988],[9,23,38,26,26,54,65,53,28,4,58,33,29,59,63,26,5,27,28,9,93,26,26,35,80,44,23,24,14,68,17,29,23,0,66,28,72,29,33,103,246,256,318,60,290,357,114,373,114,354,262,106,105,229,377,252,429,96,94,143,118,113,387,183,176,261,413,124,104,375,207,454,103,294,211,85,236,252,119,360,2931,4608,2972,948,131,883,1320,3467,741,4414,3897,4617,2631,1958,3468,2559,1224,3046,3639,988],[19,23,54,26,77,61,29,88,28,4,68,76,72,61,111,38,5,70,28,32,83,46,86,91,83,75,43,24,14,99,17,108,23,48,0,64,99,27,27,99,364,349,336,60,339,259,397,323,114,104,106,247,105,408,314,249,348,337,213,205,118,211,359,372,214,228,257,186,382,361,144,369,103,387,181,173,291,229,127,310,1205,3053,3907,2329,131,883,3434,1432,741,5348,4425,3512,2811,3055,3812,4834,3229,4850,4107,2951],[18,23,74,26,90,80,98,46,100,13,85,99,71,68,100,42,11,40,29,24,66,73,90,106,97,41,76,30,14,73,17,66,89,32,54,0,92,26,27,67,247,306,92,60,301,333,417,329,291,380,347,277,248,373,268,234,304,310,229,62,306,174,372,237,207,370,298,145,386,289,147,406,122,389,368,269,324,141,219,399,2048,4270,4246,3087,401,2303,3995,3077,741,5266,3622,4034,2449,2806,4705,4165,3816,4737,3780,3647],[29,23,77,26,26,64,79,58,73,9,53,89,72,68,67,29,10,103,42,22,26,50,34,95,67,55,77,34,14,72,17,86,48,58,60,59,0,39,28,83,243,327,303,214,292,194,186,427,268,388,321,250,286,295,363,285,113,96,152,186,424,187,372,347,166,284,249,150,229,327,191,394,103,105,418,142,307,201,154,102,3181,3816,4303,948,366,2804,3460,5492,2183,3321,4122,4250,2675,1897,3057,4500,3623,3706,4069,988],[9,23,53,26,26,25,67,25,75,9,29,98,47,59,73,26,14,27,37,26,92,84,26,59,75,29,82,40,14,78,17,36,73,44,75,30,97,0,26,66,166,210,92,232,286,199,197,382,241,217,224,164,338,222,378,193,230,96,94,62,288,113,118,309,100,305,112,59,104,333,202,277,212,215,278,115,281,138,221,208,1485,4149,4555,948,385,3515,3619,5086,2040,5413,3606,4494,2407,1182,1250,2421,1224,3141,1159,988],[35,59,83,76,26,86,110,69,88,12,83,28,61,51,78,99,10,105,95,19,84,80,87,59,61,59,44,91,36,103,67,91,70,32,83,53,103,27,0,58,411,306,311,147,319,323,304,292,314,337,268,100,330,264,370,311,333,216,163,196,247,237,398,379,320,356,326,212,346,299,262,314,224,247,305,92,422,431,414,334,2731,4077,4176,948,522,2285,3675,5269,2213,3908,3971,3813,2616,2434,3992,3603,1224,4673,1159,988],[23,55,81,97,61,78,76,91,104,13,71,86,67,21,93,54,12,70,28,18,83,75,62,77,57,19,78,84,32,98,60,84,23,47,70,79,60,39,59,0,270,362,312,203,371,92,279,438,279,322,384,306,214,260,377,292,371,299,226,208,327,286,423,381,271,398,351,168,337,280,197,311,409,412,217,318,445,344,288,266,2910,3682,3972,3350,435,3139,3710,5535,2764,1366,3515,2966,2525,3214,3977,4497,4802,3372,3941,2807],[9,51,81,26,63,68,90,74,28,13,81,103,72,64,96,92,10,99,95,32,74,69,81,64,64,73,49,76,33,96,55,92,64,56,90,94,92,24,34,69,0,320,265,131,321,258,337,353,273,411,319,272,338,408,305,241,443,246,364,231,279,386,425,466,246,284,340,172,324,101,209,431,279,318,219,258,273,439,333,288,3683,4204,4281,2329,337,883,4039,4363,2364,4150,4106,4275,2776,3741,3758,3755,4347,3018,4220,2465],[31,90,22,72,78,74,106,72,73,9,78,104,73,66,81,96,10,83,56,19,75,93,94,68,61,57,81,67,42,77,36,84,50,54,52,95,59,37,52,101,334,0,296,233,254,351,432,344,404,384,346,354,389,349,363,88,316,302,203,151,390,328,345,366,100,396,326,209,391,263,248,328,382,295,417,221,288,297,260,384,4288,4048,4117,3293,293,3008,4319,4784,2840,4068,4443,4905,2474,3034,2826,4735,2870,4952,4332,2588],[23,23,75,26,26,56,88,70,28,4,29,81,64,76,51,26,5,66,28,16,87,45,30,70,45,52,34,24,14,103,17,69,23,15,73,28,36,10,32,99,272,255,0,60,141,92,114,407,114,292,255,126,210,307,302,284,351,193,152,159,118,168,256,393,108,184,206,149,407,337,67,436,103,285,143,85,318,215,129,178,2780,3498,2880,948,131,883,1320,5009,741,3902,4578,3276,3334,3192,3224,3473,2699,2762,3563,988],[9,23,47,26,26,54,72,23,85,10,29,78,53,21,56,35,11,27,28,9,49,86,26,37,34,39,64,28,14,34,17,29,55,15,23,28,29,25,36,42,228,194,92,0,243,92,114,118,306,142,293,162,405,103,105,88,113,96,94,62,372,113,118,254,100,245,123,59,104,179,86,252,195,238,361,135,149,158,137,110,1542,3610,3363,948,456,2069,3839,5316,741,1366,3107,1312,1768,1302,1250,1220,1224,2557,1159,988],[9,82,75,64,26,89,89,59,69,8,81,92,51,56,74,85,5,58,78,30,89,81,71,71,62,74,73,71,53,27,55,90,76,36,67,28,113,35,59,73,298,252,214,174,0,345,201,296,363,299,249,183,342,146,373,204,451,207,94,240,363,229,320,473,383,267,277,148,104,291,210,356,275,288,257,127,322,360,249,394,2956,2793,4246,948,329,3041,3587,5254,2948,4321,3884,3887,2783,2320,3093,2024,1224,2454,3867,988],[9,23,22,26,26,89,29,33,28,4,47,28,29,21,29,26,5,27,28,30,82,25,26,43,82,19,36,24,14,74,17,29,23,35,43,28,79,26,15,29,118,99,92,60,264,0,114,265,114,292,292,100,105,185,268,237,276,96,94,62,118,113,282,186,150,196,414,211,104,237,148,429,103,105,110,85,323,152,109,273,1205,3510,3932,948,131,883,1320,3633,741,1366,2263,3096,859,1182,1250,1902,1224,1674,1159,988],[9,88,78,86,66,60,71,23,72,11,82,65,29,21,75,79,18,27,99,9,39,62,100,84,25,26,63,93,52,33,65,95,77,15,23,109,29,21,43,54,313,331,92,185,392,92,0,159,338,377,373,292,267,103,144,219,353,252,276,62,371,310,118,459,319,398,192,59,104,309,173,207,271,288,328,242,247,342,336,269,3070,2249,1197,2843,340,2633,3924,4920,2953,4385,3822,2991,2208,3084,4940,1220,1591,2996,2950,2031],[9,86,76,83,26,68,55,52,28,4,111,58,29,83,35,75,5,58,69,25,80,25,82,70,70,70,32,95,53,77,63,65,23,36,64,28,62,24,39,106,324,328,330,60,413,321,242,0,114,395,283,125,286,125,403,188,330,138,94,173,118,416,350,364,347,273,340,124,104,397,167,426,224,297,174,85,267,118,361,371,3393,3581,3875,948,131,2716,4116,4600,741,3926,3719,4107,2333,1814,4095,1973,1224,2963,4119,988],[9,23,32,26,26,65,65,23,62,9,29,56,62,21,53,38,14,27,29,9,27,72,26,37,35,45,61,39,14,59,17,29,80,15,23,32,29,20,29,68,226,152,92,131,185,92,168,118,0,104,262,191,319,103,105,88,122,96,94,62,118,113,118,246,100,187,129,59,104,200,118,299,218,153,230,85,143,174,183,129,1552,3913,2238,948,479,3084,2429,3872,2379,1366,3971,1312,2732,1210,1250,1220,1224,1762,1159,988],[26,83,63,101,70,87,29,52,58,14,87,100,75,73,104,80,11,61,96,20,69,94,74,95,64,61,67,66,48,95,64,100,50,50,23,77,79,39,54,91,392,347,322,211,326,313,252,378,366,0,106,273,105,288,361,277,368,327,310,163,459,337,464,334,209,396,412,185,413,254,236,453,256,269,241,187,400,431,258,372,1205,3657,3935,2736,131,2948,5279,1432,1665,3679,4074,5235,3407,4571,3139,2878,4491,4749,3439,3413],[9,23,37,26,26,93,29,42,82,13,74,78,55,77,70,31,13,75,32,22,63,51,29,51,74,73,51,47,14,66,17,39,57,40,23,28,67,26,26,81,320,243,332,188,266,245,197,321,372,104,0,258,105,220,314,218,274,96,94,190,333,113,359,209,107,290,295,217,104,295,146,260,165,225,391,97,398,161,254,221,1205,4874,4214,948,131,2079,3132,1432,2471,5172,3583,4280,2384,1495,2403,1723,1224,2875,4358,988],[24,23,49,26,55,70,80,66,97,15,69,28,95,68,79,41,17,87,35,21,84,86,64,97,97,60,61,36,14,103,17,108,74,52,70,97,62,27,15,92,293,330,291,130,273,330,289,447,441,387,393,0,415,304,345,221,383,332,212,245,297,174,438,322,218,288,392,230,257,375,179,396,150,411,327,216,432,192,152,281,3549,4376,4435,2977,401,3252,5141,4685,2679,4611,3968,4596,2773,4311,3856,3098,1224,3890,1159,2018],[35,71,53,86,90,83,29,47,64,8,97,90,70,39,114,64,19,32,87,19,66,80,66,87,68,49,53,81,32,59,44,78,68,15,23,83,34,28,36,52,395,296,331,228,412,92,328,118,311,104,106,212,0,237,222,330,297,252,218,62,413,337,319,469,354,423,238,160,408,282,246,404,218,356,280,307,342,460,334,366,1205,4801,3636,2647,131,2622,3991,1432,1996,3550,3982,4365,1940,3367,3852,3384,3497,3148,4011,2328],[27,23,69,26,26,92,60,23,28,4,53,90,29,59,38,26,5,36,28,22,78,25,26,95,25,39,32,24,14,90,17,64,23,51,70,69,59,25,27,48,122,259,324,60,249,241,114,241,114,390,200,100,196,0,415,261,427,223,124,62,118,157,291,350,171,317,357,184,360,307,137,425,103,302,186,85,333,190,159,325,3160,3676,1197,948,131,883,1320,2961,741,4770,3292,3445,859,2386,3007,4041,2676,4581,3627,988],[18,23,79,26,79,82,79,58,35,4,84,63,78,55,29,40,5,29,28,22,98,25,50,28,94,32,42,24,14,57,17,114,23,43,71,77,68,34,27,65,189,353,248,60,179,196,244,300,114,258,276,209,218,312,0,271,336,251,340,62,118,113,438,326,170,276,380,136,379,355,67,117,116,230,105,337,287,118,109,364,1998,3870,4734,948,131,883,4730,4529,741,5387,4728,4194,859,1182,1250,3496,3497,1285,4238,2478],[9,87,22,100,52,57,60,68,35,4,67,65,113,70,65,73,5,99,87,24,63,71,100,89,95,56,22,84,37,61,40,97,23,39,75,75,61,21,46,78,277,97,199,60,230,353,413,369,114,332,240,369,257,246,328,0,315,266,256,208,118,303,420,253,100,271,279,179,128,240,160,325,281,371,171,304,379,468,322,326,4548,2889,4270,2355,131,2996,4100,4268,741,4858,4355,5237,2279,3285,4506,2656,1692,2521,4059,2777],[26,72,82,93,67,93,83,65,87,8,79,100,75,76,110,96,10,95,81,28,26,87,77,76,76,65,78,67,47,83,54,86,55,42,72,90,29,28,37,75,351,349,232,189,296,279,380,310,318,309,418,308,235,238,312,272,0,96,321,147,254,432,363,302,303,343,271,149,296,324,222,410,103,105,298,190,329,270,382,102,4409,3169,3455,3091,482,2971,3185,4739,1620,5078,3458,4705,2100,3040,4000,2906,4170,3724,4588,2292],[23,83,74,60,78,55,107,90,28,4,87,81,65,45,91,99,5,32,101,23,26,68,80,101,83,30,33,66,46,96,37,108,23,15,51,101,29,10,30,49,409,343,317,60,289,92,338,144,114,378,106,350,274,294,268,331,113,0,298,62,118,271,228,343,364,301,226,173,366,246,180,250,103,105,126,319,298,453,420,102,3557,4472,3686,3211,131,1715,3923,4582,741,3248,3064,4809,859,4040,4488,2596,4287,3766,3915,2526],[27,23,69,26,73,25,105,72,28,4,29,80,74,48,64,29,5,35,28,15,64,25,92,74,67,41,21,24,14,105,17,104,23,15,85,105,35,10,21,29,233,339,322,60,107,92,260,118,114,399,106,246,143,406,202,264,295,321,0,62,118,304,333,348,191,409,171,170,271,344,67,467,121,400,190,244,178,118,109,231,3079,1231,3990,2463,131,883,5003,3600,741,4376,1204,3065,859,2471,4641,4803,3767,4726,3442,2900],[9,23,22,26,26,71,87,43,28,4,29,55,29,53,29,26,5,57,28,9,68,38,26,28,25,73,21,24,14,54,17,29,23,15,23,28,29,10,37,65,197,238,293,60,107,92,114,357,114,180,177,132,105,103,105,298,340,96,94,0,118,113,225,119,100,125,237,59,104,101,67,117,103,302,105,85,242,168,109,116,3527,1231,2856,948,131,883,1320,4511,741,2780,4381,2878,859,1182,1250,2200,1224,1285,2498,988],[9,23,33,26,26,67,79,23,102,8,29,88,57,21,65,31,13,27,28,9,46,87,26,34,56,39,44,35,14,55,17,29,65,15,23,28,29,26,35,55,146,154,92,229,262,92,192,118,114,145,274,174,293,103,105,88,113,96,94,62,0,113,118,267,100,282,141,59,104,153,132,269,117,139,274,85,136,131,172,102,2204,2871,3575,948,442,2101,3740,2915,2305,1366,3534,1312,2287,1182,1250,1220,1224,2973,1159,988],[18,23,74,62,26,86,79,84,28,4,81,95,70,37,29,73,5,34,106,19,81,50,54,28,29,40,29,59,53,100,17,85,23,15,48,48,44,10,36,47,242,325,282,60,384,92,327,132,114,331,106,101,277,261,105,109,323,261,189,62,118,0,263,443,325,354,151,101,245,314,67,117,279,388,105,85,232,290,109,327,3182,4358,2298,948,131,2029,3400,3846,741,1665,1961,3561,859,1182,1250,2948,2504,1285,3877,988],[24,23,81,26,26,25,80,79,28,4,29,77,40,53,55,26,5,85,28,19,89,36,30,91,68,45,33,24,14,98,17,54,23,33,63,72,115,10,36,107,239,307,317,60,316,268,114,325,114,218,231,121,255,235,417,238,432,372,148,247,118,304,0,383,129,298,112,59,309,275,124,326,103,396,149,85,245,213,109,357,2878,2707,4093,948,131,883,1320,4587,741,3032,4456,4987,2712,2734,3372,3738,2486,4850,4333,988],[20,52,81,59,90,73,104,63,77,8,73,104,70,62,79,87,17,76,57,35,62,61,26,76,80,51,82,95,31,107,67,91,47,47,74,102,62,34,34,78,317,308,227,169,322,363,289,413,450,337,402,319,370,311,363,279,394,206,270,174,404,347,344,0,249,351,302,173,262,381,250,322,325,383,335,200,332,277,434,261,4457,3831,4145,2986,432,2361,5007,3939,1531,4734,4584,1312,2264,3955,3890,4095,2854,4792,4193,2978],[20,57,22,85,71,80,107,48,33,4,67,91,76,62,105,80,5,38,110,20,62,78,83,101,80,25,36,70,49,104,61,99,23,50,85,109,64,30,48,61,297,97,228,60,338,185,345,386,114,348,316,295,236,259,313,88,316,380,345,62,118,383,463,361,0,328,400,207,278,338,154,423,312,407,177,183,353,341,377,387,3532,3739,2707,2101,131,2066,4116,2952,741,4427,4067,4422,859,3078,4524,4365,3238,3684,4032,2173],[20,78,67,56,93,83,113,63,66,8,109,76,111,65,84,64,11,58,81,31,80,62,56,73,64,42,71,66,48,85,47,29,60,49,72,64,107,29,54,91,332,330,360,237,266,222,340,417,239,402,334,263,317,376,410,302,414,322,276,151,281,385,364,319,341,0,228,169,411,313,238,464,240,418,306,314,112,451,262,406,3831,4240,3411,1989,510,3088,3952,5477,2465,3989,3744,3701,2998,3329,3571,1220,2511,3349,4057,3268],[25,23,52,26,57,25,87,73,86,14,29,67,97,59,61,26,16,55,38,35,63,56,73,104,80,72,68,41,14,86,17,95,49,57,66,100,97,10,38,77,307,296,304,167,241,351,414,400,234,355,371,280,214,335,350,274,335,319,214,214,290,207,118,274,225,303,0,59,273,342,179,402,139,311,317,278,382,131,174,351,3191,3661,4011,2972,377,2690,3907,5348,2286,3872,4123,4127,2308,2643,4224,3317,4805,4393,4429,3105],[26,23,64,26,26,25,67,71,28,4,29,72,43,65,39,26,5,38,28,34,83,25,28,103,64,30,34,24,14,62,17,57,23,35,60,50,80,10,27,52,203,352,254,60,201,252,114,289,114,379,187,100,174,407,292,233,233,252,237,62,118,257,118,201,118,253,112,0,353,361,147,398,103,346,151,85,365,135,132,266,1939,3664,4534,948,131,883,1320,4217,741,4118,1997,5135,859,2169,1944,2621,3472,3717,2728,988],[32,23,82,26,59,25,107,69,28,4,29,73,69,71,88,27,5,43,28,12,69,25,68,103,57,35,36,24,14,84,17,74,23,15,70,73,47,10,23,29,220,352,334,60,107,92,383,118,114,388,106,275,160,357,272,347,318,257,323,62,118,273,337,259,229,292,271,183,0,268,67,254,124,292,148,279,184,118,124,330,3231,3433,3618,2151,131,883,2700,2412,741,3790,3588,4700,859,2642,3258,4503,3477,4559,2863,2154],[9,76,52,26,26,63,75,88,28,14,65,66,43,62,95,72,19,41,79,30,103,86,71,69,65,45,49,65,49,63,66,94,88,45,56,51,98,24,39,55,106,379,249,207,379,352,230,449,309,383,352,219,276,259,356,184,339,255,146,62,258,404,346,400,392,301,418,159,240,0,155,339,371,259,323,139,342,276,338,305,4058,4596,4372,948,392,883,3731,4949,2272,2835,3574,4401,1660,2086,2708,2648,3521,3465,2733,988],[9,23,75,92,26,74,60,35,65,14,115,83,70,46,29,82,17,27,98,18,80,81,99,28,62,50,69,71,41,61,17,71,76,39,62,33,67,31,41,64,349,341,92,160,273,351,232,247,342,251,379,181,345,147,105,226,242,212,94,62,262,113,245,238,346,258,298,200,104,271,0,117,274,242,105,178,375,319,109,351,4253,4017,3877,948,418,2805,4152,5597,2484,3654,3503,3215,859,1182,1250,2419,1224,1285,3224,988],[34,23,87,64,62,76,106,88,77,11,97,75,66,65,29,56,17,100,92,24,102,68,99,28,64,51,53,93,43,96,17,89,86,53,64,111,114,23,40,88,376,351,300,129,338,190,438,362,293,375,306,247,266,372,105,351,387,350,331,62,263,113,415,403,284,320,420,170,260,371,67,0,361,337,105,318,332,388,109,400,4389,4638,4029,948,277,2006,3743,4426,1653,4682,3591,4249,859,1182,1250,3680,4884,1285,3777,2035],[9,65,81,97,57,67,54,29,69,9,61,80,110,21,94,84,14,27,109,9,26,79,61,58,85,39,82,94,55,33,56,93,60,15,23,81,29,19,34,65,291,238,92,153,347,92,450,186,445,303,412,332,285,103,140,260,113,96,345,62,319,252,118,419,377,321,144,59,104,263,191,325,0,105,385,257,317,457,255,102,3791,3448,3070,2071,311,2021,4113,5460,1973,3895,4075,2825,1570,3132,3425,1220,2758,3773,3757,2118],[26,85,76,59,90,72,93,65,83,10,96,93,98,55,90,74,14,56,78,18,26,91,87,92,54,47,44,60,46,60,41,96,74,15,48,63,29,19,51,75,322,340,319,160,259,92,326,268,348,378,391,257,386,344,258,244,113,96,232,177,240,451,320,310,234,368,205,139,394,270,263,358,103,0,286,312,379,291,305,102,3107,3448,3967,2309,490,3054,3642,4202,1847,3999,4249,4351,2752,3904,3513,3540,3304,3726,3633,3868],[25,23,57,26,79,57,86,53,65,8,45,67,64,56,29,38,14,87,43,32,80,77,59,28,79,50,47,46,14,106,17,92,64,40,66,103,93,24,39,96,305,250,259,188,336,250,234,413,300,307,365,316,287,364,105,328,390,289,288,62,342,113,319,309,182,385,297,179,384,366,67,117,114,383,0,203,302,145,109,398,2477,4670,4415,948,318,3479,3576,5203,2000,3988,4237,4686,859,1182,1250,3158,2783,1285,3905,2664],[9,23,53,26,90,43,82,23,87,12,29,88,113,21,112,36,19,27,39,9,48,80,94,61,73,45,42,50,14,56,17,61,70,15,23,71,29,22,35,66,235,297,92,160,255,92,299,118,114,259,346,256,415,103,105,338,354,251,293,62,118,113,118,191,208,377,225,59,104,241,92,333,156,334,266,0,173,148,140,332,1743,3072,2818,2122,427,2205,5276,3526,2903,4337,3185,2651,2530,4426,4422,1220,3054,2497,3787,988],[27,57,73,82,99,68,114,75,60,14,104,101,87,64,106,52,19,91,72,25,67,68,60,75,89,73,53,80,35,64,52,29,72,31,64,104,93,33,36,98,423,344,285,222,250,276,304,364,383,373,384,271,387,382,278,318,372,297,230,178,468,265,335,356,336,108,351,132,329,300,201,362,220,389,398,213,0,334,317,343,3681,3560,4082,3417,426,2570,4320,5313,2080,4998,3351,4285,3248,2572,4097,1220,2931,4305,4052,2653],[9,70,82,74,26,67,78,65,62,4,108,61,36,47,74,80,16,91,108,23,82,25,81,42,93,74,74,61,45,89,49,102,85,41,43,29,111,29,48,82,309,285,267,167,407,252,206,118,319,404,413,186,363,147,219,186,305,229,94,194,240,402,277,281,346,415,279,191,104,337,160,264,351,265,385,92,260,0,366,401,3852,2866,3896,948,507,3309,2886,4937,1815,4935,3362,4886,2706,1851,2293,2345,1224,2164,4356,988],[28,23,59,63,26,83,77,47,88,9,81,67,61,52,29,88,16,31,104,20,80,95,95,28,88,45,69,86,46,60,17,74,88,35,62,49,106,22,34,50,317,294,185,124,339,233,298,463,334,389,318,263,382,352,105,272,415,237,202,62,377,113,419,367,286,341,243,156,221,321,67,117,407,315,105,123,305,457,0,232,4451,4029,3704,948,399,2790,2478,4878,2204,4245,3356,4126,859,1182,1250,3242,3635,1285,3309,988],[34,66,54,84,99,84,101,91,91,11,110,100,69,65,105,101,14,60,58,27,26,79,101,91,70,61,81,93,29,81,63,94,71,40,63,91,29,25,53,72,317,336,295,157,318,314,417,408,280,367,215,368,279,219,319,266,113,96,227,200,244,343,290,413,218,342,374,225,219,344,265,327,103,105,379,329,380,415,273,0,4498,4083,4315,3614,521,2486,3896,5282,1500,3464,4674,4855,2683,3053,3005,3100,3265,3490,3130,3913],[29,57,74,90,67,81,29,76,66,11,76,109,106,63,112,79,10,55,70,25,61,82,87,79,66,41,76,82,41,71,42,88,90,45,23,97,61,21,36,85,368,299,250,158,400,317,311,415,301,104,106,363,105,360,372,307,422,241,257,236,470,396,306,332,318,322,254,205,287,312,207,439,376,362,255,181,364,326,294,335,0,4772,3240,2965,131,2586,3242,1432,2147,5035,4123,4382,2442,2885,3489,4057,3317,3469,4182,2920],[20,71,72,78,89,87,115,61,70,11,107,107,82,66,86,85,10,85,109,27,65,73,81,64,97,44,21,85,34,91,41,102,74,51,54,105,72,25,38,104,319,281,324,120,422,191,286,446,441,341,370,289,294,311,269,267,335,286,94,215,332,449,358,316,265,294,394,233,386,293,207,364,303,379,264,227,337,342,398,391,4787,0,3023,2300,425,3148,3355,3886,2180,4647,1204,3486,3209,3245,4274,3592,3511,3713,4287,3707],[24,90,57,52,67,64,90,23,99,15,75,94,29,71,90,84,16,89,64,34,95,63,57,85,25,55,63,81,53,76,50,109,58,42,83,96,87,27,36,88,416,303,232,218,307,340,114,383,266,402,339,240,306,103,396,282,404,382,350,132,260,356,362,357,225,397,271,163,404,272,182,334,248,404,401,200,351,413,411,385,2978,4702,0,2326,360,2217,4970,5420,2613,4358,4433,4467,2639,4062,4188,2902,4041,4405,3376,3749],[9,23,44,91,103,44,33,23,28,4,70,52,71,21,29,74,5,27,56,9,35,42,82,28,76,19,21,73,41,27,17,96,23,15,23,77,29,10,43,48,265,345,92,60,239,92,423,196,114,374,106,211,379,103,105,337,402,270,346,62,118,113,118,469,331,365,162,59,114,283,67,117,235,337,105,226,334,274,109,329,3081,1823,2934,0,131,2615,4977,5621,741,4179,4102,3257,859,1182,1250,1220,1630,1285,2431,2701],[9,23,48,26,26,43,29,23,108,8,29,79,70,21,78,33,16,27,30,9,30,94,26,62,35,38,51,26,14,57,17,29,62,15,23,28,29,19,27,45,216,144,92,189,186,92,120,118,432,104,106,255,105,103,105,88,129,96,94,62,410,113,118,319,100,213,141,59,104,218,102,321,177,231,410,163,123,118,136,140,1205,2835,2053,948,0,2064,3730,1432,1858,1366,2309,1312,1487,1277,1250,1220,1224,2011,1159,988],[9,73,52,26,26,63,57,23,28,15,96,92,71,21,73,97,14,31,75,9,35,96,52,79,54,27,70,60,51,46,51,76,63,15,23,31,29,25,49,54,106,271,92,182,263,92,251,124,453,402,327,190,350,103,105,179,332,255,94,62,251,245,118,349,384,409,142,59,104,101,263,224,251,315,332,97,249,253,391,377,2798,2903,2890,948,511,0,3882,4388,2721,1493,2177,1312,2015,1182,1250,1220,1224,2931,3661,988],[34,91,71,99,94,64,94,83,58,10,58,106,76,60,86,60,12,59,101,18,64,82,91,86,71,57,63,73,46,103,55,101,75,15,73,78,32,31,54,86,407,335,304,149,411,92,335,235,276,322,308,319,357,370,244,278,357,259,330,245,388,358,327,295,328,351,253,130,242,331,153,444,308,281,282,246,371,445,306,253,3311,2493,3765,2007,484,2527,0,5253,1608,3902,3982,3984,2315,3073,4839,2983,4190,3450,4191,2083],[24,87,68,103,69,66,29,56,65,14,84,82,93,78,92,91,19,100,84,35,88,75,92,97,98,49,59,95,45,78,61,83,58,51,23,100,94,26,57,114,295,332,362,222,294,292,343,320,453,104,106,367,105,225,365,337,422,377,305,246,457,445,390,310,399,322,325,184,397,326,169,315,221,383,375,329,335,381,430,357,1205,3585,3988,3059,131,3118,4890,0,2147,5191,4513,4194,2239,3602,4481,3194,2492,4960,4051,3742],[9,23,30,26,26,49,54,23,107,9,29,84,69,21,66,34,12,27,28,9,36,51,26,63,45,38,68,32,14,38,17,29,89,15,23,28,29,18,31,49,214,183,92,60,154,92,176,118,323,126,224,180,341,103,105,88,124,96,94,62,303,113,118,253,100,272,190,59,104,191,136,227,214,265,283,158,119,124,267,102,2517,3329,3297,948,386,1943,2548,4013,0,1366,2311,1312,2700,1182,1250,1220,1224,2089,1159,988],[29,88,76,80,56,78,95,74,102,12,72,79,77,21,71,62,10,91,28,29,81,71,73,72,80,19,76,73,53,68,49,81,23,41,90,59,111,36,38,29,287,351,366,214,334,92,352,433,325,356,317,200,393,299,329,278,386,337,351,211,285,272,409,395,206,387,391,182,273,338,181,344,314,399,244,206,377,317,354,323,3062,4623,3222,2576,273,3405,4183,5617,2556,0,4002,3393,2514,2587,4049,3643,3105,3543,4291,3335],[23,90,80,89,58,83,94,79,74,13,67,111,114,71,95,57,14,94,95,23,69,99,63,101,98,40,21,70,48,74,62,95,75,37,65,107,76,38,49,90,360,371,259,145,362,199,340,365,345,403,285,313,336,334,374,284,386,243,94,147,314,433,469,468,373,301,426,200,395,369,229,423,273,368,382,270,430,272,356,388,3969,1231,4441,2561,503,3066,4298,5612,1826,5131,0,3617,2878,2593,4639,4688,4836,4466,3801,3423],[26,23,60,26,94,70,81,78,94,10,63,101,94,58,112,37,11,66,34,27,82,74,26,84,80,60,45,34,14,69,17,92,73,34,82,95,89,26,36,106,267,278,268,160,187,293,415,435,434,219,285,398,359,375,288,283,399,343,231,162,399,177,446,119,196,267,401,174,378,368,136,370,219,310,349,281,381,207,246,401,3519,3750,3053,2152,430,2586,4556,4343,2432,5365,4710,0,2391,3955,3560,3856,3040,3243,4535,2362],[9,23,41,26,26,55,77,66,81,12,29,92,63,60,29,30,12,95,28,9,56,87,26,28,52,70,55,41,14,51,17,29,50,15,23,28,29,28,32,79,250,176,341,198,173,92,120,336,304,171,220,225,292,103,105,187,380,96,94,62,470,113,250,312,100,276,197,59,104,178,67,117,150,261,105,151,250,192,109,140,3668,2684,4298,948,420,2315,2164,3904,2339,3031,4432,2370,0,1182,1250,1592,1224,1285,3752,988],[18,23,78,56,54,73,108,87,83,9,84,100,84,71,29,71,11,56,77,34,84,63,100,28,77,59,65,87,41,83,17,97,49,37,58,110,63,21,59,103,387,363,345,157,286,328,311,382,354,340,320,216,400,284,105,268,450,359,241,62,383,113,334,425,252,379,261,211,238,304,67,117,328,398,105,187,294,311,109,398,3522,4502,4142,948,482,3425,4904,5474,2108,3812,4363,4007,859,0,1250,2738,3134,1285,4216,2990],[19,23,65,52,69,67,88,73,107,8,99,82,70,71,29,99,18,79,97,22,61,70,52,28,73,39,47,78,29,99,17,105,52,15,80,90,29,27,41,105,378,361,283,165,353,92,264,266,317,411,393,224,254,354,105,281,419,371,227,62,307,113,354,439,228,400,226,161,276,314,67,117,388,376,105,278,250,467,109,368,2480,3875,4438,948,301,2623,2883,5083,2493,5309,4007,4154,859,1182,0,3211,4136,1285,2795,3476],[20,23,53,26,26,91,83,81,28,4,67,98,38,63,42,31,5,60,28,30,89,45,26,57,60,68,39,24,14,85,17,29,23,31,73,58,69,35,35,64,304,304,342,60,281,266,114,436,114,379,210,133,236,306,335,162,380,289,206,239,118,156,369,395,172,108,389,166,349,333,202,370,103,384,213,85,112,258,109,301,3484,3491,2896,948,131,883,1320,3838,741,4700,4132,5089,2506,3016,3023,0,3149,2920,4496,988],[20,23,69,26,67,54,89,68,34,4,29,28,80,68,107,28,5,71,28,15,68,32,61,96,64,73,39,24,14,103,17,91,23,15,86,79,42,10,15,113,339,289,343,60,115,92,419,446,114,324,174,100,243,230,281,222,388,301,250,245,118,194,264,387,157,402,258,112,209,232,67,349,107,291,179,335,432,162,154,227,2484,3168,3819,3295,131,883,3827,3127,741,3004,3450,3739,2691,3004,4167,4494,0,5065,1159,2590],[29,23,68,75,66,99,79,59,90,11,81,85,62,77,29,87,16,79,73,28,85,56,80,28,75,48,53,52,43,106,17,89,57,48,55,75,61,27,46,85,392,352,303,171,310,196,430,462,411,356,331,331,315,253,105,273,427,291,245,62,299,113,354,359,219,297,252,190,250,284,67,117,233,360,105,310,372,457,109,393,2662,3992,4163,948,510,3132,4825,4558,2580,3331,4706,4011,859,1182,1250,2689,4681,0,4058,3079],[23,57,61,55,74,80,103,85,101,8,61,28,59,68,70,97,10,59,111,22,63,82,78,102,56,44,77,52,43,91,61,93,69,15,79,104,32,30,15,74,298,261,227,130,289,92,397,250,349,396,263,100,363,246,198,205,401,272,244,161,432,246,301,472,335,357,226,163,226,305,189,303,281,382,255,298,413,464,294,391,3628,3615,4372,3317,473,2617,3422,4856,1509,4082,3654,2877,3426,4368,4988,3718,1224,3453,0,3939],[9,23,22,26,67,25,29,23,28,4,29,28,72,21,101,26,5,27,28,9,26,25,91,58,50,19,21,24,14,27,17,71,23,15,23,99,29,10,15,29,267,211,92,60,107,92,431,118,114,198,106,240,135,103,128,332,279,270,229,62,118,113,118,120,202,402,205,59,131,101,67,163,103,249,105,85,121,118,109,172,1205,1231,4118,2994,131,883,3445,2780,741,4018,4037,2972,859,3731,4710,1220,3022,1285,4072,0],];
precedences = [{},{},{67},{},{},{},{2},{},{},{71},{},{},{53},{},{13,90},{},{},{94,77},{},{60},{20},{},{},{},{},{},{},{},{100},{48},{},{},{88},{},{},{},{},{18},{54},{47},{},{72},{},{},{},{},{},{},{},{},{},{},{39,18},{},{5},{},{},{},{},{64},{40},{},{},{},{81,73},{},{},{98,16},{},{7},{},{37},{90},{},{58},{},{},{53},{},{},{97},{},{},{},{},{55,53},{},{37},{},{62,92},{},{},{},{},{15},{38},{61},{},{},{75},];
required_resource = [[0,0,0,0,0,0,0,0,0,0,0,0,0,0,0],[4,4,0,0,4,2,2,1,0,4,4,0,0,2,2],[0,0,0,0,1,4,0,0,1,0,0,1,0,0,0],[0,0,3,1,0,0,0,0,0,3,0,0,0,0,4],[0,0,0,0,0,0,0,0,0,0,0,0,0,0,0],[0,0,0,0,0,0,0,0,3,0,0,2,0,0,0],[0,1,2,4,1,1,0,0,0,1,0,1,2,4,0],[0,0,0,3,0,0,2,1,0,0,1,1,0,1,0],[0,0,4,1,0,0,0,0,0,4,0,0,0,0,2],[0,3,2,0,2,0,3,0,0,0,3,0,2,3,0],[0,0,0,0,0,0,0,0,2,0,0,1,0,0,0],[3,1,1,1,3,2,2,2,1,2,3,4,2,4,3],[0,0,0,4,0,0,4,4,0,0,4,4,0,3,0],[0,0,0,0,0,0,0,0,0,0,0,0,0,0,0],[3,3,0,0,4,3,1,4,0,1,2,0,0,2,1],[0,0,0,0,0,0,0,0,4,0,0,1,0,0,0],[4,4,2,0,0,4,1,2,4,4,3,3,4,4,3],[0,0,0,0,0,0,0,0,0,0,0,0,0,0,0],[0,4,0,1,4,2,1,0,2,0,3,2,0,2,2],[0,0,0,0,0,0,0,0,0,0,0,0,0,0,0],[0,0,0,0,0,0,3,0,0,1,0,0,0,1,0],[0,3,3,0,1,0,2,0,0,0,3,0,2,2,0],[0,0,2,1,2,0,2,2,1,0,2,0,2,1,0],[2,4,0,0,1,1,3,1,0,2,3,0,0,1,4],[0,0,0,2,0,0,2,4,0,0,3,4,0,2,0],[0,4,0,3,4,3,2,0,3,0,4,3,0,2,2],[0,0,0,0,0,0,0,0,0,0,0,0,4,0,0],[3,0,2,4,1,4,2,0,3,0,4,1,0,0,1],[0,0,0,0,0,0,0,0,0,0,0,0,0,0,0],[4,2,4,0,0,4,4,1,2,4,2,4,4,4,4],[0,0,0,0,0,0,0,0,0,0,0,0,0,0,0],[0,0,0,0,2,1,0,0,0,3,2,0,0,0,0],[0,1,0,2,2,1,4,0,1,0,2,2,0,4,3],[0,0,0,0,0,0,0,0,0,0,0,0,0,0,0],[0,0,0,0,0,0,0,0,0,0,0,0,0,0,0],[4,4,2,3,3,4,3,0,3,2,4,4,4,1,1],[0,0,0,0,0,0,2,0,0,4,0,0,0,2,0],[0,0,0,0,0,0,0,0,4,0,0,4,0,0,0],[3,3,2,2,4,2,3,1,3,4,3,1,4,4,4],[0,4,0,3,3,2,1,0,3,0,3,4,0,1,3],[0,0,4,1,0,0,0,0,0,4,0,0,0,0,2],[0,0,0,0,2,1,0,0,1,0,0,4,0,0,0],[0,0,0,0,0,0,0,0,0,0,0,0,0,0,0],[2,4,2,3,4,1,4,0,3,2,2,3,2,4,2],[2,2,3,0,0,1,3,1,1,1,4,2,3,4,4],[0,0,0,0,0,0,0,0,0,0,0,0,0,0,0],[0,0,0,4,0,0,1,3,0,0,1,2,0,1,0],[0,0,0,0,0,0,0,0,0,0,0,0,0,0,0],[3,0,0,3,0,0,2,0,0,0,1,2,0,4,0],[0,4,3,1,4,3,0,0,0,2,0,2,4,1,0],[0,4,3,1,2,4,0,0,0,4,0,1,3,3,0],[4,2,3,4,4,2,3,1,3,4,3,3,1,3,4],[0,3,3,4,2,1,0,0,0,3,0,4,1,4,0],[0,0,0,0,0,0,0,0,0,0,0,0,0,0,0],[0,0,0,0,0,0,0,0,0,0,0,0,0,0,0],[0,0,0,0,0,0,0,0,0,0,0,0,0,0,0],[0,0,0,0,0,0,2,0,0,2,0,0,0,2,0],[0,0,0,0,0,0,0,0,0,0,0,0,0,0,0],[0,0,0,0,0,0,0,0,0,0,0,0,0,0,0],[0,0,0,0,0,0,0,0,0,0,0,0,0,0,0],[1,0,0,2,0,0,2,0,0,0,4,3,0,1,0],[0,0,0,0,0,0,0,0,0,0,0,0,0,0,0],[0,0,0,0,0,0,0,0,0,0,0,0,0,0,0],[0,0,4,4,3,0,2,4,3,0,3,0,2,2,0],[0,0,0,0,0,0,0,0,0,0,0,0,0,0,0],[0,0,0,0,1,2,0,0,0,1,4,0,0,0,0],[0,0,0,0,0,0,0,0,1,0,0,3,0,0,0],[0,0,0,0,0,0,0,0,0,0,0,0,0,0,0],[0,0,0,0,0,0,0,0,0,0,0,0,0,0,0],[0,0,4,4,0,0,0,0,0,3,0,0,0,0,2],[2,1,0,0,3,4,3,3,0,4,2,0,0,2,4],[1,2,0,0,3,1,4,2,0,2,3,0,0,3,1],[0,0,0,0,0,0,1,0,0,1,0,0,0,2,0],[0,0,0,0,0,0,1,0,0,1,0,0,0,4,0],[4,4,0,0,1,4,2,1,0,2,2,0,0,3,4],[4,0,0,4,0,0,4,0,0,0,1,2,0,2,0],[0,0,0,0,3,2,0,0,0,3,3,0,0,0,0],[0,1,1,0,1,0,3,0,0,0,2,0,4,1,0],[2,3,0,0,2,4,4,1,0,4,4,0,0,4,2],[0,0,0,0,0,0,1,0,0,1,0,0,0,3,0],[0,4,2,2,1,2,0,0,0,1,0,2,2,4,0],[0,0,0,0,0,0,0,0,0,0,0,0,3,0,0],[0,0,0,4,0,0,3,3,0,0,3,2,0,2,0],[0,0,0,0,0,0,0,0,0,0,0,0,0,0,0],[0,2,1,4,4,2,0,0,0,3,0,1,1,1,0],[0,0,4,4,0,0,0,0,0,4,0,0,0,0,3],[1,2,0,4,0,0,0,0,0,0,0,0,0,0,2],[0,1,3,1,1,2,0,0,0,2,0,4,1,1,0],[1,2,1,4,4,3,4,0,2,3,2,2,4,4,3],[0,1,0,2,4,1,4,0,4,0,1,3,0,2,4],[0,0,0,0,0,0,0,0,0,0,0,0,3,0,0],[0,0,1,4,2,0,3,3,1,0,2,0,2,1,0],[2,2,0,0,4,1,1,1,0,3,4,0,0,2,4],[4,1,0,0,4,4,2,1,0,2,1,0,0,2,2],[2,3,0,0,2,2,4,1,0,4,1,0,0,3,2],[0,0,0,0,0,0,0,0,0,0,0,0,0,0,0],[0,0,0,0,0,0,0,0,0,0,0,0,0,0,0],[4,2,0,0,3,2,2,1,0,2,2,0,0,2,3],[3,4,2,3,4,3,4,2,2,4,3,4,4,2,4],[0,0,0,0,0,0,0,0,0,0,0,0,0,0,0],];
n_res_periods = [11,11,70,16,13,22,16,99,11,24,62,21,32,43,25,];
res_period_start = [[0,19175,38350,57525,76700,95875,115050,134225,153400,172575,191750,0,0,0,0,0,0,0,0,0,0,0,0,0,0,0,0,0,0,0,0,0,0,0,0,0,0,0,0,0,0,0,0,0,0,0,0,0,0,0,0,0,0,0,0,0,0,0,0,0,0,0,0,0,0,0,0,0,0,0,0,0,0,0,0,0,0,0,0,0,0,0,0,0,0,0,0,0,0,0,0,0,0,0,0,0,0,0,0],[0,19861,39722,59583,79444,99305,119166,139027,158888,178749,198610,0,0,0,0,0,0,0,0,0,0,0,0,0,0,0,0,0,0,0,0,0,0,0,0,0,0,0,0,0,0,0,0,0,0,0,0,0,0,0,0,0,0,0,0,0,0,0,0,0,0,0,0,0,0,0,0,0,0,0,0,0,0,0,0,0,0,0,0,0,0,0,0,0,0,0,0,0,0,0,0,0,0,0,0,0,0,0,0],[0,2896,5792,8688,11584,14480,17376,20272,23168,26064,28960,31856,34752,37648,40544,43440,46336,49232,52128,55024,57920,60816,63712,66608,69504,72400,75296,78192,81088,83984,86880,89776,92672,95568,98464,101360,104256,107152,110048,112944,115840,118736,121632,124528,127424,130320,133216,136112,139008,141904,144800,147696,150592,153488,156384,159280,162176,165072,167968,170864,173760,176656,179552,182448,185344,188240,191136,194032,196928,199824,0,0,0,0,0,0,0,0,0,0,0,0,0,0,0,0,0,0,0,0,0,0,0,0,0,0,0,0,0],[0,13321,26642,39963,53284,66605,79926,93247,106568,119889,133210,146531,159852,173173,186494,199815,0,0,0,0,0,0,0,0,0,0,0,0,0,0,0,0,0,0,0,0,0,0,0,0,0,0,0,0,0,0,0,0,0,0,0,0,0,0,0,0,0,0,0,0,0,0,0,0,0,0,0,0,0,0,0,0,0,0,0,0,0,0,0,0,0,0,0,0,0,0,0,0,0,0,0,0,0,0,0,0,0,0,0],[0,16436,32872,49308,65744,82180,98616,115052,131488,147924,164360,180796,197232,0,0,0,0,0,0,0,0,0,0,0,0,0,0,0,0,0,0,0,0,0,0,0,0,0,0,0,0,0,0,0,0,0,0,0,0,0,0,0,0,0,0,0,0,0,0,0,0,0,0,0,0,0,0,0,0,0,0,0,0,0,0,0,0,0,0,0,0,0,0,0,0,0,0,0,0,0,0,0,0,0,0,0,0,0,0],[0,9096,18192,27288,36384,45480,54576,63672,72768,81864,90960,100056,109152,118248,127344,136440,145536,154632,163728,172824,181920,191016,0,0,0,0,0,0,0,0,0,0,0,0,0,0,0,0,0,0,0,0,0,0,0,0,0,0,0,0,0,0,0,0,0,0,0,0,0,0,0,0,0,0,0,0,0,0,0,0,0,0,0,0,0,0,0,0,0,0,0,0,0,0,0,0,0,0,0,0,0,0,0,0,0,0,0,0,0],[0,12696,25392,38088,50784,63480,76176,88872,101568,114264,126960,139656,152352,165048,177744,190440,0,0,0,0,0,0,0,0,0,0,0,0,0,0,0,0,0,0,0,0,0,0,0,0,0,0,0,0,0,0,0,0,0,0,0,0,0,0,0,0,0,0,0,0,0,0,0,0,0,0,0,0,0,0,0,0,0,0,0,0,0,0,0,0,0,0,0,0,0,0,0,0,0,0,0,0,0,0,0,0,0,0,0],[0,2026,4052,6078,8104,10130,12156,14182,16208,18234,20260,22286,24312,26338,28364,30390,32416,34442,36468,38494,40520,42546,44572,46598,48624,50650,52676,54702,56728,58754,60780,62806,64832,66858,68884,70910,72936,74962,76988,79014,81040,83066,85092,87118,89144,91170,93196,95222,97248,99274,101300,103326,105352,107378,109404,111430,113456,115482,117508,119534,121560,123586,125612,127638,129664,131690,133716,135742,137768,139794,141820,143846,145872,147898,149924,151950,153976,156002,158028,160054,162080,164106,166132,168158,170184,172210,174236,176262,178288,180314,182340,184366,186392,188418,190444,192470,194496,196522,198548],[0,18870,37740,56610,75480,94350,113220,132090,150960,169830,188700,0,0,0,0,0,0,0,0,0,0,0,0,0,0,0,0,0,0,0,0,0,0,0,0,0,0,0,0,0,0,0,0,0,0,0,0,0,0,0,0,0,0,0,0,0,0,0,0,0,0,0,0,0,0,0,0,0,0,0,0,0,0,0,0,0,0,0,0,0,0,0,0,0,0,0,0,0,0,0,0,0,0,0,0,0,0,0,0],[0,8598,17196,25794,34392,42990,51588,60186,68784,77382,85980,94578,103176,111774,120372,128970,137568,146166,154764,163362,171960,180558,189156,197754,0,0,0,0,0,0,0,0,0,0,0,0,0,0,0,0,0,0,0,0,0,0,0,0,0,0,0,0,0,0,0,0,0,0,0,0,0,0,0,0,0,0,0,0,0,0,0,0,0,0,0,0,0,0,0,0,0,0,0,0,0,0,0,0,0,0,0,0,0,0,0,0,0,0,0],[0,3198,6396,9594,12792,15990,19188,22386,25584,28782,31980,35178,38376,41574,44772,47970,51168,54366,57564,60762,63960,67158,70356,73554,76752,79950,83148,86346,89544,92742,95940,99138,102336,105534,108732,111930,115128,118326,121524,124722,127920,131118,134316,137514,140712,143910,147108,150306,153504,159900,163098,166296,169494,172692,175890,179088,182286,185484,188682,191880,195078,198276,0,0,0,0,0,0,0,0,0,0,0,0,0,0,0,0,0,0,0,0,0,0,0,0,0,0,0,0,0,0,0,0,0,0,0,0,0],[0,9710,19420,29130,38840,48550,58260,67970,77680,87390,97100,106810,116520,126230,135940,145650,155360,165070,174780,184490,194200,0,0,0,0,0,0,0,0,0,0,0,0,0,0,0,0,0,0,0,0,0,0,0,0,0,0,0,0,0,0,0,0,0,0,0,0,0,0,0,0,0,0,0,0,0,0,0,0,0,0,0,0,0,0,0,0,0,0,0,0,0,0,0,0,0,0,0,0,0,0,0,0,0,0,0,0,0,0],[0,6256,12512,18768,25024,31280,37536,43792,50048,56304,62560,68816,75072,81328,87584,93840,100096,106352,112608,118864,125120,131376,137632,143888,150144,156400,162656,168912,175168,181424,187680,193936,0,0,0,0,0,0,0,0,0,0,0,0,0,0,0,0,0,0,0,0,0,0,0,0,0,0,0,0,0,0,0,0,0,0,0,0,0,0,0,0,0,0,0,0,0,0,0,0,0,0,0,0,0,0,0,0,0,0,0,0,0,0,0,0,0,0,0],[0,4687,9374,14061,18748,23435,28122,32809,37496,42183,46870,51557,56244,60931,65618,70305,74992,79679,84366,89053,93740,98427,103114,107801,112488,117175,121862,126549,131236,135923,140610,145297,149984,154671,159358,164045,168732,173419,178106,182793,187480,192167,196854,0,0,0,0,0,0,0,0,0,0,0,0,0,0,0,0,0,0,0,0,0,0,0,0,0,0,0,0,0,0,0,0,0,0,0,0,0,0,0,0,0,0,0,0,0,0,0,0,0,0,0,0,0,0,0,0],[0,8109,16218,24327,32436,40545,48654,56763,64872,72981,81090,89199,97308,105417,113526,121635,129744,137853,145962,154071,162180,170289,178398,186507,194616,0,0,0,0,0,0,0,0,0,0,0,0,0,0,0,0,0,0,0,0,0,0,0,0,0,0,0,0,0,0,0,0,0,0,0,0,0,0,0,0,0,0,0,0,0,0,0,0,0,0,0,0,0,0,0,0,0,0,0,0,0,0,0,0,0,0,0,0,0,0,0,0,0,0],];
res_period_end = [[19175,38350,57525,76700,95875,115050,134225,153400,172575,191750,200000,0,0,0,0,0,0,0,0,0,0,0,0,0,0,0,0,0,0,0,0,0,0,0,0,0,0,0,0,0,0,0,0,0,0,0,0,0,0,0,0,0,0,0,0,0,0,0,0,0,0,0,0,0,0,0,0,0,0,0,0,0,0,0,0,0,0,0,0,0,0,0,0,0,0,0,0,0,0,0,0,0,0,0,0,0,0,0,0],[19861,39722,59583,79444,99305,119166,139027,158888,178749,198610,200000,0,0,0,0,0,0,0,0,0,0,0,0,0,0,0,0,0,0,0,0,0,0,0,0,0,0,0,0,0,0,0,0,0,0,0,0,0,0,0,0,0,0,0,0,0,0,0,0,0,0,0,0,0,0,0,0,0,0,0,0,0,0,0,0,0,0,0,0,0,0,0,0,0,0,0,0,0,0,0,0,0,0,0,0,0,0,0,0],[2896,5792,8688,11584,14480,17376,20272,23168,26064,28960,31856,34752,37648,40544,43440,46336,49232,52128,55024,57920,60816,63712,66608,69504,72400,75296,78192,81088,83984,86880,89776,92672,95568,98464,101360,104256,107152,110048,112944,115840,118736,121632,124528,127424,130320,133216,136112,139008,141904,144800,147696,150592,153488,156384,159280,162176,165072,167968,170864,173760,176656,179552,182448,185344,188240,191136,194032,196928,199824,200000,0,0,0,0,0,0,0,0,0,0,0,0,0,0,0,0,0,0,0,0,0,0,0,0,0,0,0,0,0],[13321,26642,39963,53284,66605,79926,93247,106568,119889,133210,146531,159852,173173,186494,199815,200000,0,0,0,0,0,0,0,0,0,0,0,0,0,0,0,0,0,0,0,0,0,0,0,0,0,0,0,0,0,0,0,0,0,0,0,0,0,0,0,0,0,0,0,0,0,0,0,0,0,0,0,0,0,0,0,0,0,0,0,0,0,0,0,0,0,0,0,0,0,0,0,0,0,0,0,0,0,0,0,0,0,0,0],[16436,32872,49308,65744,82180,98616,115052,131488,147924,164360,180796,197232,200000,0,0,0,0,0,0,0,0,0,0,0,0,0,0,0,0,0,0,0,0,0,0,0,0,0,0,0,0,0,0,0,0,0,0,0,0,0,0,0,0,0,0,0,0,0,0,0,0,0,0,0,0,0,0,0,0,0,0,0,0,0,0,0,0,0,0,0,0,0,0,0,0,0,0,0,0,0,0,0,0,0,0,0,0,0,0],[9096,18192,27288,36384,45480,54576,63672,72768,81864,90960,100056,109152,118248,127344,136440,145536,154632,163728,172824,181920,191016,200000,0,0,0,0,0,0,0,0,0,0,0,0,0,0,0,0,0,0,0,0,0,0,0,0,0,0,0,0,0,0,0,0,0,0,0,0,0,0,0,0,0,0,0,0,0,0,0,0,0,0,0,0,0,0,0,0,0,0,0,0,0,0,0,0,0,0,0,0,0,0,0,0,0,0,0,0,0],[12696,25392,38088,50784,63480,76176,88872,101568,114264,126960,139656,152352,165048,177744,190440,200000,0,0,0,0,0,0,0,0,0,0,0,0,0,0,0,0,0,0,0,0,0,0,0,0,0,0,0,0,0,0,0,0,0,0,0,0,0,0,0,0,0,0,0,0,0,0,0,0,0,0,0,0,0,0,0,0,0,0,0,0,0,0,0,0,0,0,0,0,0,0,0,0,0,0,0,0,0,0,0,0,0,0,0],[2026,4052,6078,8104,10130,12156,14182,16208,18234,20260,22286,24312,26338,28364,30390,32416,34442,36468,38494,40520,42546,44572,46598,48624,50650,52676,54702,56728,58754,60780,62806,64832,66858,68884,70910,72936,74962,76988,79014,81040,83066,85092,87118,89144,91170,93196,95222,97248,99274,101300,103326,105352,107378,109404,111430,113456,115482,117508,119534,121560,123586,125612,127638,129664,131690,133716,135742,137768,139794,141820,143846,145872,147898,149924,151950,153976,156002,158028,160054,162080,164106,166132,168158,170184,172210,174236,176262,178288,180314,182340,184366,186392,188418,190444,192470,194496,196522,198548,200000],[18870,37740,56610,75480,94350,113220,132090,150960,169830,188700,200000,0,0,0,0,0,0,0,0,0,0,0,0,0,0,0,0,0,0,0,0,0,0,0,0,0,0,0,0,0,0,0,0,0,0,0,0,0,0,0,0,0,0,0,0,0,0,0,0,0,0,0,0,0,0,0,0,0,0,0,0,0,0,0,0,0,0,0,0,0,0,0,0,0,0,0,0,0,0,0,0,0,0,0,0,0,0,0,0],[8598,17196,25794,34392,42990,51588,60186,68784,77382,85980,94578,103176,111774,120372,128970,137568,146166,154764,163362,171960,180558,189156,197754,200000,0,0,0,0,0,0,0,0,0,0,0,0,0,0,0,0,0,0,0,0,0,0,0,0,0,0,0,0,0,0,0,0,0,0,0,0,0,0,0,0,0,0,0,0,0,0,0,0,0,0,0,0,0,0,0,0,0,0,0,0,0,0,0,0,0,0,0,0,0,0,0,0,0,0,0],[3198,6396,9594,12792,15990,19188,22386,25584,28782,31980,35178,38376,41574,44772,47970,51168,54366,57564,60762,63960,67158,70356,73554,76752,79950,83148,86346,89544,92742,95940,99138,102336,105534,108732,111930,115128,118326,121524,124722,127920,131118,134316,137514,140712,143910,147108,150306,153504,159900,163098,166296,169494,172692,175890,179088,182286,185484,188682,191880,195078,198276,200000,0,0,0,0,0,0,0,0,0,0,0,0,0,0,0,0,0,0,0,0,0,0,0,0,0,0,0,0,0,0,0,0,0,0,0,0,0],[9710,19420,29130,38840,48550,58260,67970,77680,87390,97100,106810,116520,126230,135940,145650,155360,165070,174780,184490,194200,200000,0,0,0,0,0,0,0,0,0,0,0,0,0,0,0,0,0,0,0,0,0,0,0,0,0,0,0,0,0,0,0,0,0,0,0,0,0,0,0,0,0,0,0,0,0,0,0,0,0,0,0,0,0,0,0,0,0,0,0,0,0,0,0,0,0,0,0,0,0,0,0,0,0,0,0,0,0,0],[6256,12512,18768,25024,31280,37536,43792,50048,56304,62560,68816,75072,81328,87584,93840,100096,106352,112608,118864,125120,131376,137632,143888,150144,156400,162656,168912,175168,181424,187680,193936,200000,0,0,0,0,0,0,0,0,0,0,0,0,0,0,0,0,0,0,0,0,0,0,0,0,0,0,0,0,0,0,0,0,0,0,0,0,0,0,0,0,0,0,0,0,0,0,0,0,0,0,0,0,0,0,0,0,0,0,0,0,0,0,0,0,0,0,0],[4687,9374,14061,18748,23435,28122,32809,37496,42183,46870,51557,56244,60931,65618,70305,74992,79679,84366,89053,93740,98427,103114,107801,112488,117175,121862,126549,131236,135923,140610,145297,149984,154671,159358,164045,168732,173419,178106,182793,187480,192167,196854,200000,0,0,0,0,0,0,0,0,0,0,0,0,0,0,0,0,0,0,0,0,0,0,0,0,0,0,0,0,0,0,0,0,0,0,0,0,0,0,0,0,0,0,0,0,0,0,0,0,0,0,0,0,0,0,0,0],[8109,16218,24327,32436,40545,48654,56763,64872,72981,81090,89199,97308,105417,113526,121635,129744,137853,145962,154071,162180,170289,178398,186507,194616,200000,0,0,0,0,0,0,0,0,0,0,0,0,0,0,0,0,0,0,0,0,0,0,0,0,0,0,0,0,0,0,0,0,0,0,0,0,0,0,0,0,0,0,0,0,0,0,0,0,0,0,0,0,0,0,0,0,0,0,0,0,0,0,0,0,0,0,0,0,0,0,0,0,0,0],];
res_period_capacity = [[18,19,19,20,21,18,17,16,14,16,0,0,0,0,0,0,0,0,0,0,0,0,0,0,0,0,0,0,0,0,0,0,0,0,0,0,0,0,0,0,0,0,0,0,0,0,0,0,0,0,0,0,0,0,0,0,0,0,0,0,0,0,0,0,0,0,0,0,0,0,0,0,0,0,0,0,0,0,0,0,0,0,0,0,0,0,0,0,0,0,0,0,0,0,0,0,0,0,0],[24,24,22,20,16,17,19,20,19,0,0,0,0,0,0,0,0,0,0,0,0,0,0,0,0,0,0,0,0,0,0,0,0,0,0,0,0,0,0,0,0,0,0,0,0,0,0,0,0,0,0,0,0,0,0,0,0,0,0,0,0,0,0,0,0,0,0,0,0,0,0,0,0,0,0,0,0,0,0,0,0,0,0,0,0,0,0,0,0,0,0,0,0,0,0,0,0,0,0],[18,19,18,19,21,21,22,23,23,24,23,24,25,0,21,19,20,0,18,17,18,19,19,15,0,0,0,12,0,13,15,15,16,0,16,0,19,18,15,14,15,0,17,16,16,19,15,0,12,15,0,0,13,13,11,12,11,0,15,16,0,19,20,0,21,20,0,21,21,20,0,0,0,0,0,0,0,0,0,0,0,0,0,0,0,0,0,0,0,0,0,0,0,0,0,0,0,0,0],[16,15,17,0,14,15,17,14,0,12,11,0,11,13,14,17,0,0,0,0,0,0,0,0,0,0,0,0,0,0,0,0,0,0,0,0,0,0,0,0,0,0,0,0,0,0,0,0,0,0,0,0,0,0,0,0,0,0,0,0,0,0,0,0,0,0,0,0,0,0,0,0,0,0,0,0,0,0,0,0,0,0,0,0,0,0,0,0,0,0,0,0,0,0,0,0,0,0,0],[23,21,17,19,20,20,19,17,19,15,13,0,13,0,0,0,0,0,0,0,0,0,0,0,0,0,0,0,0,0,0,0,0,0,0,0,0,0,0,0,0,0,0,0,0,0,0,0,0,0,0,0,0,0,0,0,0,0,0,0,0,0,0,0,0,0,0,0,0,0,0,0,0,0,0,0,0,0,0,0,0,0,0,0,0,0,0,0,0,0,0,0,0,0,0,0,0,0,0],[20,21,17,15,15,16,14,0,0,16,19,0,16,18,0,20,20,17,0,20,22,20,0,0,0,0,0,0,0,0,0,0,0,0,0,0,0,0,0,0,0,0,0,0,0,0,0,0,0,0,0,0,0,0,0,0,0,0,0,0,0,0,0,0,0,0,0,0,0,0,0,0,0,0,0,0,0,0,0,0,0,0,0,0,0,0,0,0,0,0,0,0,0,0,0,0,0,0,0],[20,19,16,14,0,17,15,12,11,15,13,13,15,16,0,15,0,0,0,0,0,0,0,0,0,0,0,0,0,0,0,0,0,0,0,0,0,0,0,0,0,0,0,0,0,0,0,0,0,0,0,0,0,0,0,0,0,0,0,0,0,0,0,0,0,0,0,0,0,0,0,0,0,0,0,0,0,0,0,0,0,0,0,0,0,0,0,0,0,0,0,0,0,0,0,0,0,0,0],[29,26,24,23,22,23,20,20,20,0,17,19,16,16,15,0,16,17,15,17,15,17,0,19,17,14,0,17,14,11,12,0,15,0,0,16,18,0,20,20,18,17,15,0,18,20,0,22,19,19,20,18,18,18,17,18,18,0,18,0,15,15,13,13,0,11,0,11,9,0,12,10,0,11,14,16,15,12,13,16,14,13,10,8,7,8,11,10,11,0,13,14,11,11,12,12,11,0,10],[20,17,17,15,15,13,16,13,16,19,0,0,0,0,0,0,0,0,0,0,0,0,0,0,0,0,0,0,0,0,0,0,0,0,0,0,0,0,0,0,0,0,0,0,0,0,0,0,0,0,0,0,0,0,0,0,0,0,0,0,0,0,0,0,0,0,0,0,0,0,0,0,0,0,0,0,0,0,0,0,0,0,0,0,0,0,0,0,0,0,0,0,0,0,0,0,0,0,0],[20,20,0,17,19,0,19,16,18,16,17,17,14,16,17,16,13,0,12,11,15,14,0,15,0,0,0,0,0,0,0,0,0,0,0,0,0,0,0,0,0,0,0,0,0,0,0,0,0,0,0,0,0,0,0,0,0,0,0,0,0,0,0,0,0,0,0,0,0,0,0,0,0,0,0,0,0,0,0,0,0,0,0,0,0,0,0,0,0,0,0,0,0,0,0,0,0,0,0],[20,21,21,22,23,20,0,17,15,13,0,10,0,11,10,11,0,0,15,0,15,17,18,17,19,0,16,13,13,13,12,11,15,16,13,0,11,10,10,14,0,17,16,16,0,15,13,14,16,15,16,18,0,0,15,13,14,17,19,16,15,14,0,0,0,0,0,0,0,0,0,0,0,0,0,0,0,0,0,0,0,0,0,0,0,0,0,0,0,0,0,0,0,0,0,0,0,0,0],[19,21,22,0,0,0,0,20,0,17,15,15,14,14,0,14,16,16,14,16,0,0,0,0,0,0,0,0,0,0,0,0,0,0,0,0,0,0,0,0,0,0,0,0,0,0,0,0,0,0,0,0,0,0,0,0,0,0,0,0,0,0,0,0,0,0,0,0,0,0,0,0,0,0,0,0,0,0,0,0,0,0,0,0,0,0,0,0,0,0,0,0,0,0,0,0,0,0,0],[17,16,14,15,0,18,18,17,0,18,20,18,18,17,17,0,18,16,15,0,13,12,15,18,19,17,15,0,0,16,0,16,0,0,0,0,0,0,0,0,0,0,0,0,0,0,0,0,0,0,0,0,0,0,0,0,0,0,0,0,0,0,0,0,0,0,0,0,0,0,0,0,0,0,0,0,0,0,0,0,0,0,0,0,0,0,0,0,0,0,0,0,0,0,0,0,0,0,0],[27,26,27,25,22,20,19,16,0,16,18,0,19,21,23,21,20,0,21,22,23,23,19,0,18,16,18,19,21,19,16,0,19,19,19,19,18,15,14,0,15,14,11,0,0,0,0,0,0,0,0,0,0,0,0,0,0,0,0,0,0,0,0,0,0,0,0,0,0,0,0,0,0,0,0,0,0,0,0,0,0,0,0,0,0,0,0,0,0,0,0,0,0,0,0,0,0,0,0],[22,20,0,17,19,16,13,15,0,0,14,0,16,17,0,17,18,18,0,14,14,16,17,14,11,0,0,0,0,0,0,0,0,0,0,0,0,0,0,0,0,0,0,0,0,0,0,0,0,0,0,0,0,0,0,0,0,0,0,0,0,0,0,0,0,0,0,0,0,0,0,0,0,0,0,0,0,0,0,0,0,0,0,0,0,0,0,0,0,0,0,0,0,0,0,0,0,0,0],];
