n_jobs = 50;
n_machines = 1;
n_resources = 5;
max_periods = 39;
processing = [52,12,19,16,34,46,42,53,11,32,1,4,43,32,29,52,50,30,8,17,200,153,102,197,189,101,146,189,118,159,64,156,113,109,126,204,188,127,217,164,2458,1851,2285,2824,2565,1060,1565,947,2325,1763];
due = [119281,15,179,97,92288,44735,321,76816,258,292,34811,686,537,370,1338,512,1261,1534,1665,53280,1453,1109,24953,4815,43200,2976,3503,59610,4322,5023,39346,3273,6311,10669,26060,5680,40998,3536,9333,9411,73121,34365,25523,19117,98576,45456,53876,16796,61713,86455];
initial_setup = [9,8,3,3,23,0,23,6,21,3,28,24,2,3,3,5,23,10,16,2,44,74,47,44,76,69,69,72,115,72,71,86,40,58,107,54,97,50,96,40,819,274,357,220,917,339,669,251,819,409];
eligible = [{1},{1},{1},{1},{1},{1},{1},{1},{1},{1},{1},{1},{1},{1},{1},{1},{1},{1},{1},{1},{1},{1},{1},{1},{1},{1},{1},{1},{1},{1},{1},{1},{1},{1},{1},{1},{1},{1},{1},{1},{1},{1},{1},{1},{1},{1},{1},{1},{1},{1},];
setup = [[0,41,65,30,51,7,71,29,3,44,65,0,46,26,78,59,38,89,16,58,195,169,188,112,291,309,133,127,218,130,305,287,296,112,205,161,142,181,180,294,1738,2830,3040,1210,3201,2260,1192,2399,1654,1114],[51,0,45,14,46,4,94,42,6,33,92,0,34,31,76,75,59,85,48,99,368,250,260,126,334,363,128,123,163,87,292,203,270,144,203,170,220,305,133,281,2025,3874,3300,683,2462,3523,834,2438,2572,991],[48,43,0,29,39,4,67,32,10,48,97,0,41,33,91,95,70,99,46,74,376,229,212,203,219,428,133,186,276,116,225,231,296,96,152,208,152,337,194,164,2699,2425,2390,1041,4687,2981,1473,3274,2994,1181],[71,11,56,0,51,5,95,47,7,38,60,0,36,31,89,71,47,98,34,80,234,163,171,160,233,283,147,177,234,113,421,269,240,151,168,179,219,218,128,292,2284,2429,3664,1003,3736,3181,1016,1852,2561,1330],[75,32,70,47,0,7,107,44,7,57,85,0,28,29,99,87,55,25,32,50,347,279,261,158,172,340,127,150,164,93,447,212,242,120,148,201,204,90,112,157,2100,3014,3552,1089,2769,3537,1197,2538,2996,835],[89,32,45,52,38,0,75,40,10,62,70,0,38,31,60,78,47,52,61,67,208,273,236,173,227,271,100,105,253,102,425,299,243,118,212,142,257,284,195,246,2030,2613,2483,771,4820,933,964,1960,3071,381],[55,35,58,54,56,4,0,30,9,43,54,0,51,20,105,81,66,67,44,64,349,255,286,147,257,391,132,139,195,103,238,198,171,143,194,210,204,226,194,78,2613,3758,2690,774,4614,2680,1105,2820,1799,1269],[71,24,76,29,51,4,63,0,10,51,79,0,27,18,61,80,50,87,32,85,207,246,234,135,295,353,140,156,287,80,315,184,210,104,58,211,165,218,109,201,1589,4068,2266,1055,3360,3458,819,2544,1973,1516],[23,38,74,29,53,4,79,35,0,47,95,0,40,19,71,96,51,86,16,84,290,189,225,140,175,257,98,126,289,81,391,255,253,98,124,200,181,186,143,211,1674,3173,2801,749,2551,3351,1015,1941,2733,1001],[69,29,40,53,53,6,89,45,6,0,89,0,42,28,95,89,70,77,52,87,244,281,174,158,310,357,138,186,217,84,437,172,179,90,211,135,266,312,110,185,1650,2671,974,1287,3931,3705,889,2711,2480,1261],[82,29,55,52,47,4,75,45,6,56,0,0,50,31,86,98,57,80,56,53,97,274,219,188,195,339,120,186,265,138,284,243,230,45,192,150,195,198,193,187,2927,3224,2858,692,1209,3725,1339,3259,3127,1099],[61,35,66,51,42,7,86,46,9,57,62,0,31,33,64,61,70,82,57,90,367,202,271,178,322,115,85,112,161,113,324,233,180,124,134,156,160,222,109,289,2865,2687,2402,985,4580,2975,1068,853,2255,898],[87,41,67,30,33,4,75,48,8,60,62,0,0,18,107,64,59,54,58,58,217,168,270,54,289,454,99,190,211,36,346,264,286,112,154,123,258,337,144,274,2886,2853,3062,848,4431,2168,1169,1846,2345,800],[57,39,71,30,39,5,67,51,11,45,50,0,50,0,66,71,18,57,57,97,239,262,189,180,229,341,127,179,73,101,369,233,246,105,225,115,69,320,208,163,2932,2164,3022,895,3055,3564,1167,3200,2428,1460],[49,38,51,40,55,7,91,31,7,43,54,0,36,24,0,56,56,66,33,84,322,177,245,206,244,388,136,113,173,121,232,206,75,109,189,139,206,239,174,183,770,1034,3868,894,4203,2216,896,2900,3089,1042],[72,36,54,34,32,6,88,52,8,35,56,0,48,35,85,0,60,96,33,75,372,202,227,179,284,326,39,52,290,99,337,230,206,151,167,125,142,318,208,257,2677,2614,2550,824,2494,3196,1461,1774,800,948],[68,43,66,30,61,4,88,33,6,61,64,0,28,9,76,74,0,63,37,66,276,274,268,119,270,452,84,164,73,123,296,168,261,100,196,173,69,201,160,248,1946,2371,3427,1045,4612,2042,1413,2945,2134,1429],[86,33,45,48,16,6,92,41,7,52,55,0,48,19,92,75,43,0,48,81,212,241,238,140,235,400,108,143,182,113,424,297,283,107,176,109,231,90,147,274,2874,3786,2715,1230,3621,3579,764,1914,2205,804],[23,39,46,38,60,7,83,54,3,54,50,0,32,32,91,104,37,95,0,56,211,197,259,193,186,384,130,166,247,137,385,228,248,167,204,182,272,314,158,234,2714,3528,3669,1130,3565,2749,1089,3368,3090,1088],[76,43,52,54,62,4,82,53,7,32,97,0,42,30,75,70,47,93,51,0,297,251,244,182,318,293,111,200,276,106,273,263,158,136,139,141,236,340,185,280,1945,3267,3064,1065,4063,2204,1445,2461,2812,1059],[62,38,50,46,37,7,70,29,11,32,25,0,48,20,84,80,64,54,62,70,0,279,149,208,335,251,117,119,286,131,291,287,271,45,129,151,142,200,139,228,2644,3651,3615,991,1209,3234,1438,2763,2683,1022],[90,43,61,31,41,4,82,38,11,52,84,0,26,32,110,109,60,70,35,52,364,0,290,111,332,278,124,126,188,123,244,83,257,178,213,193,260,224,139,279,2230,2167,2767,724,3600,3109,1145,3290,2478,931],[46,35,40,29,41,4,90,55,6,51,51,0,33,24,110,100,51,69,43,72,271,250,0,179,320,273,148,167,288,102,380,305,275,102,123,168,172,211,130,241,1593,3082,2882,809,3576,2891,880,2425,2582,1481],[90,43,42,36,36,7,103,41,10,40,62,0,13,29,60,92,46,63,63,64,240,271,170,0,193,291,79,123,150,36,375,317,290,131,156,111,232,299,114,258,2737,2978,2302,1278,3307,3572,1156,1719,1923,973],[67,37,53,42,45,7,66,37,7,34,98,0,33,35,67,106,63,54,59,87,287,277,206,180,0,236,131,111,218,121,253,307,232,175,225,158,195,341,125,226,2977,3682,2888,1300,4602,3349,381,3345,1735,1165],[77,36,48,48,62,7,105,37,7,56,97,0,48,32,87,70,68,95,39,62,205,212,148,206,299,0,144,160,216,77,245,266,186,115,185,184,207,261,179,310,2747,3011,1991,1077,2719,2251,1050,853,2719,1155],[74,26,43,54,49,5,107,47,11,53,71,0,38,24,92,28,60,76,33,78,228,157,163,115,258,395,0,52,274,74,400,240,177,159,218,167,238,232,175,221,1687,3720,3434,714,4142,2806,1252,2958,800,1019],[80,23,78,39,43,5,84,38,10,35,62,0,49,25,70,28,41,75,41,94,345,283,232,127,197,319,39,0,179,116,258,225,154,109,170,196,232,204,137,184,1622,3676,3050,947,4110,1869,1099,2989,800,1186],[49,41,59,42,61,5,102,31,10,53,55,0,26,9,81,85,18,50,63,87,385,162,193,132,200,342,92,203,0,101,398,224,212,96,225,128,69,340,123,247,2313,2390,2948,812,3091,3230,1292,3078,3070,1361],[68,37,67,38,51,4,69,44,10,54,53,0,13,31,86,85,64,94,50,69,366,287,223,54,326,341,153,112,154,0,284,302,243,94,127,157,245,195,200,181,2251,3842,2360,1267,4208,2497,1001,2634,2251,920],[52,29,77,48,46,7,55,48,8,35,84,0,26,34,72,87,36,51,35,81,267,254,237,163,325,292,144,148,174,91,0,207,198,154,146,54,239,227,53,165,2531,3161,2651,680,3451,3167,1181,2415,1933,931],[90,30,69,40,44,4,81,53,10,55,66,0,46,22,97,91,39,93,63,70,316,75,240,125,326,250,102,141,238,123,381,0,219,159,225,159,146,296,186,214,2686,2750,2302,1013,2803,3476,1446,2439,2620,827],[62,28,47,49,57,7,83,42,11,36,80,0,29,29,28,68,70,80,45,76,312,166,231,169,302,333,95,138,213,143,321,255,0,116,133,126,193,233,150,286,770,1034,3377,903,4033,3687,1501,2712,2168,822],[72,31,63,53,58,5,77,38,6,39,25,0,26,26,93,83,51,80,59,85,97,250,289,172,250,402,115,164,230,111,239,308,209,0,171,145,197,219,154,290,2755,2582,3527,1036,1209,2609,838,3304,2493,999],[53,26,40,28,59,5,102,14,8,59,81,0,34,35,91,64,42,78,55,91,224,161,263,178,319,238,140,178,253,113,349,288,253,146,0,183,195,261,193,284,2253,2308,3527,1317,4753,2526,820,2836,2415,1004],[60,36,70,47,36,5,102,38,11,61,78,0,45,30,56,56,58,58,44,59,209,238,234,122,283,255,113,196,181,96,112,303,264,135,204,0,215,187,53,274,2262,2590,2864,1179,4248,2877,1090,1919,2713,1218],[71,36,62,48,58,4,81,54,7,45,72,0,26,9,97,99,18,80,56,94,357,214,243,204,219,346,139,160,73,97,280,245,158,140,221,153,0,340,147,294,2981,2718,3773,1051,4647,1916,1354,2286,2128,1010],[63,36,58,44,16,5,67,55,7,36,67,0,36,27,96,103,46,25,51,84,234,252,288,202,178,417,110,183,209,115,340,193,285,109,222,123,144,0,193,183,2036,2108,2370,1118,4718,3128,1228,3409,3052,1502],[72,33,60,49,61,6,62,50,11,47,99,0,34,20,70,78,64,95,38,84,323,150,285,112,198,434,154,200,243,135,112,200,247,124,173,54,149,333,0,223,2884,3717,2211,1269,3699,2594,1209,2374,2272,1101],[77,36,51,33,52,6,27,28,8,35,89,0,51,35,94,103,45,58,39,97,332,235,291,203,270,295,119,182,150,137,284,195,224,123,183,183,159,245,204,0,3077,2464,3400,803,2681,2172,979,3336,1903,1045],[82,22,63,29,49,7,91,28,7,62,73,0,37,24,28,76,43,66,61,90,296,215,174,108,248,447,155,122,286,117,336,289,75,149,159,159,181,269,191,258,0,1034,3295,1191,2471,2618,1067,2794,2768,1019],[76,35,44,53,45,7,87,28,7,42,97,0,44,28,28,64,51,69,63,81,280,174,277,126,218,406,78,162,263,94,306,300,75,96,205,182,188,269,169,238,770,0,3706,1303,3578,2840,1458,3302,2381,1112],[86,26,54,34,44,4,91,31,7,16,95,0,44,18,107,59,39,95,55,77,347,262,272,197,263,263,110,113,167,128,287,194,234,112,122,112,223,248,202,197,2157,2492,0,1036,4256,2888,1160,2562,2580,1028],[70,39,59,50,38,6,58,54,10,35,92,0,38,28,70,80,58,81,47,88,245,239,289,151,294,393,153,136,270,81,432,206,186,110,142,188,202,233,153,232,3063,3308,3717,0,4414,3598,1465,2509,2188,1523],[48,42,48,48,63,4,88,41,7,45,25,0,27,34,93,94,53,90,62,83,97,223,249,134,310,323,124,193,206,75,374,300,237,45,228,109,257,349,173,212,1940,2916,2509,748,0,3641,1503,1936,2387,1028],[71,27,79,46,37,2,80,52,7,61,72,0,41,22,80,69,45,87,60,82,281,232,218,138,222,352,145,171,168,76,370,293,238,178,186,177,143,186,122,196,1786,3274,3341,822,4741,0,1163,2411,2868,381],[47,30,79,41,46,4,57,34,10,41,50,0,27,27,107,61,37,57,61,66,315,250,233,108,84,399,87,152,161,120,303,182,166,112,154,123,239,215,159,296,2480,2763,3426,1204,2729,2748,0,2711,2614,1271],[56,28,79,30,52,4,89,50,9,60,57,0,26,22,106,103,46,92,35,78,281,230,167,129,201,115,127,138,167,112,298,241,293,171,213,167,229,313,206,269,1540,2250,3510,1058,3629,2369,1036,0,1631,1313],[69,24,58,48,34,7,65,36,10,49,55,0,41,25,86,28,64,54,50,97,248,152,181,129,263,250,39,52,250,140,363,211,270,128,139,167,250,342,120,223,2347,3000,3735,998,3715,3203,1164,2338,0,1042],[84,34,42,44,60,2,64,49,10,46,73,0,47,19,61,104,61,76,48,85,374,221,267,114,265,417,121,179,201,101,275,299,193,176,180,185,165,231,143,308,2878,3841,3613,1002,3680,933,817,2840,2032,0],];
precedences = [{39,5},{},{},{},{50},{42},{},{1,48},{},{},{42},{},{},{},{},{},{},{},{},{30},{},{},{6,15},{},{23},{},{},{37},{},{},{4},{},{},{},{19},{},{20},{},{},{},{50},{35},{},{},{26},{},{},{},{},{31,25},];
required_resource = [[3,3,0,2,0],[4,3,2,0,1],[1,3,0,1,0],[3,1,3,0,4],[0,4,0,3,1],[3,1,3,1,2],[2,0,3,3,2],[3,2,2,2,4],[2,2,0,1,0],[4,3,4,0,0],[4,0,3,3,4],[0,0,0,1,1],[0,3,0,3,0],[4,2,3,3,3],[0,1,3,3,4],[1,0,0,1,3],[1,4,2,4,1],[0,3,0,2,3],[1,4,0,1,0],[1,3,1,3,1],[4,0,1,4,3],[3,3,0,0,1],[0,2,0,4,0],[0,4,0,3,0],[4,3,4,0,4],[0,0,0,2,1],[3,0,0,1,3],[2,0,0,3,2],[1,2,1,3,3],[0,4,0,4,0],[0,0,1,0,0],[3,4,0,0,4],[0,4,3,4,4],[1,0,3,1,4],[1,3,4,3,3],[0,0,3,0,0],[3,3,4,3,4],[0,1,0,4,4],[0,0,4,0,0],[4,0,1,3,2],[0,1,4,4,3],[0,4,3,3,2],[3,2,4,0,0],[0,0,1,0,0],[3,0,3,2,3],[1,2,2,3,2],[2,4,4,0,1],[0,0,0,4,1],[3,0,0,1,4],[2,2,2,3,1],];
n_res_periods = [13,16,20,39,24,];
res_period_start = [[0,7705,15410,23115,30820,38525,46230,53935,61640,69345,77050,84755,92460,0,0,0,0,0,0,0,0,0,0,0,0,0,0,0,0,0,0,0,0,0,0,0,0,0,0],[0,6553,13106,19659,26212,32765,39318,45871,52424,58977,65530,72083,78636,85189,91742,98295,0,0,0,0,0,0,0,0,0,0,0,0,0,0,0,0,0,0,0,0,0,0,0],[0,5202,10404,15606,20808,26010,31212,36414,41616,46818,52020,57222,62424,67626,72828,78030,83232,88434,93636,98838,0,0,0,0,0,0,0,0,0,0,0,0,0,0,0,0,0,0,0],[0,2615,5230,7845,10460,13075,15690,18305,20920,23535,26150,28765,31380,33995,36610,39225,41840,44455,47070,49685,52300,54915,57530,60145,62760,65375,67990,70605,73220,75835,78450,81065,83680,86295,88910,91525,94140,96755,99370],[0,4204,8408,12612,16816,21020,25224,29428,33632,37836,42040,46244,50448,54652,58856,63060,67264,71468,75672,79876,84080,88284,92488,96692,0,0,0,0,0,0,0,0,0,0,0,0,0,0,0],];
res_period_end = [[7705,15410,23115,30820,38525,46230,53935,61640,69345,77050,84755,92460,100000,0,0,0,0,0,0,0,0,0,0,0,0,0,0,0,0,0,0,0,0,0,0,0,0,0,0],[6553,13106,19659,26212,32765,39318,45871,52424,58977,65530,72083,78636,85189,91742,98295,100000,0,0,0,0,0,0,0,0,0,0,0,0,0,0,0,0,0,0,0,0,0,0,0],[5202,10404,15606,20808,26010,31212,36414,41616,46818,52020,57222,62424,67626,72828,78030,83232,88434,93636,98838,100000,0,0,0,0,0,0,0,0,0,0,0,0,0,0,0,0,0,0,0],[2615,5230,7845,10460,13075,15690,18305,20920,23535,26150,28765,31380,33995,36610,39225,41840,44455,47070,49685,52300,54915,57530,60145,62760,65375,67990,70605,73220,75835,78450,81065,83680,86295,88910,91525,94140,96755,99370,100000],[4204,8408,12612,16816,21020,25224,29428,33632,37836,42040,46244,50448,54652,58856,63060,67264,71468,75672,79876,84080,88284,92488,96692,100000,0,0,0,0,0,0,0,0,0,0,0,0,0,0,0],];
res_period_capacity = [[10,10,13,16,14,16,14,14,12,10,14,16,13,0,0,0,0,0,0,0,0,0,0,0,0,0,0,0,0,0,0,0,0,0,0,0,0,0,0],[24,21,20,19,17,16,14,16,15,13,16,13,15,15,13,14,0,0,0,0,0,0,0,0,0,0,0,0,0,0,0,0,0,0,0,0,0,0,0],[6,9,9,10,9,9,9,10,11,13,14,0,14,16,17,16,19,18,16,17,0,0,0,0,0,0,0,0,0,0,0,0,0,0,0,0,0,0,0],[15,16,16,16,15,14,17,18,18,15,15,15,17,19,21,21,22,23,24,24,23,24,19,0,18,17,18,18,19,17,14,15,13,16,18,18,20,0,17],[4,7,0,6,7,8,9,11,15,17,15,17,16,16,14,0,14,15,0,14,0,16,14,17,0,0,0,0,0,0,0,0,0,0,0,0,0,0,0],];
