n_jobs = 100;
n_machines = 2;
n_resources = 10;
max_periods = 79;
processing = [41,59,41,25,44,34,29,33,21,22,48,7,19,51,7,56,22,57,45,13,40,6,41,41,43,50,6,23,49,29,8,4,53,26,51,46,26,47,40,26,128,221,128,174,186,191,125,142,176,132,229,209,119,228,87,154,186,174,171,186,173,199,212,231,185,166,160,85,62,195,113,227,195,219,208,237,165,201,138,152,644,2772,2675,2027,2544,2178,1892,1341,2586,1611,1124,2261,1365,2819,1058,1100,1739,2506,630,1895];
due = [37067,19,68187,168,127,25391,101585,262,322,358,75,353,211,337,80204,19272,469,660,74822,545,818,965,513,1151,60551,269,25799,971,1765,26875,1583,860,1168,12953,1529,55410,58911,40066,654,1703,1750,2644,2601,90609,75653,43783,70698,3514,26038,1038,1898,25656,2713,3143,1089,4759,1723,7283,1636,7571,34933,5091,86294,3681,6964,9189,5724,3736,8454,53540,8090,7460,9634,9587,2401,12773,12698,36644,8021,11440,16337,11094,17464,83899,19415,26806,28589,15203,7745,36014,22125,63910,28720,35030,81373,11276,15567,52509,33870,64273];
initial_setup = [13,11,10,29,21,27,29,5,25,29,17,28,26,18,19,17,22,15,6,9,22,20,27,21,2,13,19,29,25,0,13,7,15,19,2,28,21,19,25,18,48,104,32,36,43,109,83,66,58,61,37,100,95,111,84,44,96,91,82,102,106,95,43,111,61,84,72,98,33,85,57,65,57,111,119,108,38,114,87,104,1162,471,1075,264,1120,478,994,710,409,603,864,561,330,1270,160,439,633,449,895,1385];
eligible = [{2},{1,2},{2},{2},{1,2},{1,2},{2},{2},{2},{2},{1,2},{1},{1,2},{2},{1,2},{1,2},{1,2},{1,2},{2},{1,2},{1,2},{2},{2},{1,2},{1,2},{1,2},{1},{1,2},{1,2},{1},{2},{1},{2},{1},{2},{1,2},{1,2},{1},{1,2},{1,2},{1},{1,2},{1},{2},{2},{1,2},{2},{1},{1,2},{1,2},{2},{1,2},{1,2},{1,2},{2},{1},{1,2},{1,2},{1,2},{1,2},{1,2},{1,2},{2},{1,2},{1,2},{1},{1,2},{1},{2},{2},{1,2},{1,2},{2},{1,2},{1,2},{1,2},{1},{1,2},{2},{2},{2},{1,2},{2},{2},{2},{2},{1,2},{1,2},{1},{1},{1,2},{1},{1,2},{2},{2},{1},{1,2},{2},{1},{1,2},];
setup = [[0,28,42,65,21,86,11,35,35,56,10,15,63,17,70,55,66,34,32,18,33,80,59,25,39,82,15,37,55,11,53,28,7,10,3,27,49,2,17,47,41,208,36,216,111,99,57,44,212,265,177,95,215,233,144,90,319,237,257,305,134,305,248,102,104,35,105,42,275,287,209,87,131,169,316,346,82,392,68,175,2863,3415,1887,4625,2250,4222,1290,637,1004,250,1385,704,600,2914,4411,489,2675,4838,550,4974],[6,0,32,51,70,114,35,31,42,43,32,31,75,7,73,44,82,102,29,57,59,98,48,66,53,94,38,41,87,40,63,83,9,26,2,82,61,4,23,59,113,363,84,138,141,251,194,122,247,305,150,305,333,211,222,183,339,212,382,296,160,208,217,254,273,93,153,121,299,218,280,225,89,114,249,214,260,336,131,193,4231,3697,708,2779,2844,3209,2422,807,3289,688,1137,2492,2132,2519,4059,1619,2477,2948,1182,3982],[10,24,0,53,21,82,29,39,63,43,10,15,79,16,25,16,63,28,22,18,34,91,38,30,43,60,15,51,62,11,52,28,11,10,2,56,50,2,25,54,41,319,36,151,186,84,153,44,267,346,177,104,353,293,116,90,252,201,314,439,106,271,172,241,405,35,131,42,271,188,291,103,170,183,245,95,82,281,99,146,2868,3632,2762,3025,2897,3092,1035,1099,1004,250,1079,704,600,2490,4799,489,1081,1400,550,3669],[8,26,29,0,21,76,35,31,44,40,10,15,70,18,56,51,67,28,29,18,40,25,63,25,54,93,15,39,74,11,70,28,8,10,3,88,37,2,7,57,41,301,36,150,145,112,225,44,232,296,109,99,234,241,129,90,257,219,180,396,112,285,161,238,346,35,145,42,251,304,278,115,166,168,442,322,82,258,105,150,2270,2610,2229,5153,3064,2986,1843,784,1004,250,900,704,643,3141,4206,489,2477,3844,550,4911],[10,39,48,67,0,109,23,48,59,45,26,49,67,21,97,50,100,72,36,58,56,69,46,61,43,57,43,54,27,35,49,101,10,35,2,69,43,6,26,76,157,352,93,169,164,239,172,161,215,286,145,214,362,246,194,324,378,296,364,288,143,263,231,326,220,111,167,123,194,310,314,241,163,131,313,204,295,304,73,245,1092,4546,1920,3575,2504,3652,2009,883,3530,684,1141,1747,600,2407,4153,1235,3950,3458,1775,4260],[9,26,30,56,43,0,30,14,33,38,38,44,71,23,87,54,76,84,22,42,61,92,66,52,18,80,34,52,96,33,69,111,6,25,2,99,63,7,18,74,152,380,96,196,147,313,218,163,258,312,114,212,99,169,212,239,315,262,373,450,218,322,155,222,407,96,195,107,307,362,314,230,93,128,360,323,261,401,103,208,2808,4404,2243,3687,1868,4313,2489,803,2313,733,1150,2099,2168,870,4013,1043,3830,5495,1180,4872],[3,29,45,75,21,90,0,38,60,41,10,15,55,15,60,41,62,28,38,18,24,63,41,25,70,72,15,54,101,11,71,28,7,10,2,27,52,2,25,90,41,281,36,239,174,116,57,44,295,281,100,89,276,159,165,90,207,226,293,375,123,255,245,102,104,35,152,42,285,233,220,111,164,123,346,224,82,247,130,178,2918,2817,1747,4197,2818,4409,1270,920,1004,250,960,704,600,1791,3169,489,2608,3129,550,3858],[10,32,48,56,21,29,35,0,58,48,10,15,82,26,51,41,61,28,38,18,33,67,51,25,18,66,15,36,105,11,67,28,10,10,3,73,48,2,19,74,41,363,36,225,153,126,133,44,209,338,112,121,99,279,141,90,329,191,217,292,70,197,167,401,294,35,183,42,209,289,203,104,168,174,355,204,82,249,78,250,2763,4974,1554,3531,2236,2925,1395,1009,1004,250,811,704,600,870,2591,489,2892,5298,550,3307],[8,27,39,53,21,95,24,40,0,44,10,15,22,27,51,43,72,28,37,18,32,82,50,32,49,94,15,43,89,11,48,28,3,10,3,62,31,2,16,23,41,357,36,128,194,88,207,44,213,375,126,110,228,233,118,90,195,279,263,268,89,286,208,330,357,35,102,42,187,202,208,87,167,182,409,369,82,428,100,128,3250,4028,2566,4513,2246,4263,1782,1128,1004,250,901,704,615,3298,3754,489,2423,5575,550,3170],[10,21,53,60,21,103,42,45,46,0,10,15,58,17,66,40,70,28,26,18,27,75,48,25,38,97,15,36,95,11,66,28,11,10,3,80,55,2,21,85,41,197,36,132,174,116,209,44,76,290,126,89,277,287,167,90,321,179,281,311,58,280,216,277,389,35,187,42,242,196,244,99,111,187,445,263,82,409,94,159,3567,3872,2251,5232,2177,3346,748,824,1004,250,889,704,643,3185,4110,489,2652,3974,550,4606],[10,32,33,76,66,75,35,31,16,56,0,49,22,27,68,61,102,58,36,58,52,76,40,91,51,54,42,45,82,24,55,28,3,28,3,105,57,7,14,23,133,283,109,143,155,245,117,92,214,203,109,201,295,210,152,293,337,267,230,323,141,212,208,386,331,95,155,85,244,271,278,236,149,148,398,297,273,335,109,194,3940,4417,2795,3074,1688,3303,2756,1126,3719,723,1304,2786,1466,3196,3407,1232,3213,3705,1819,3273],[3,38,14,20,48,63,11,14,16,15,34,0,22,7,84,35,28,64,11,46,59,25,17,96,37,35,44,56,57,22,18,77,3,34,1,62,40,6,23,44,41,285,130,60,54,233,57,109,108,268,49,262,282,147,57,214,419,166,430,113,162,144,66,248,132,119,105,119,91,92,316,275,43,48,207,112,213,323,34,64,1092,5035,708,1371,825,1358,2056,912,3215,538,1275,1587,1862,870,1208,1170,2912,1400,2165,1324],[8,32,35,54,48,96,27,32,16,42,10,40,0,20,79,60,60,110,24,58,90,84,62,78,40,74,43,61,101,41,62,28,3,23,2,83,45,6,25,23,100,365,133,141,110,321,144,137,290,370,185,221,212,274,150,305,332,297,419,315,203,223,262,395,276,86,143,124,348,307,301,206,86,165,419,303,224,428,117,240,2812,3056,1843,3678,3049,2797,2626,1090,2291,783,1261,2711,1568,1979,4689,1120,2689,4698,2147,3464],[7,11,41,78,21,98,39,43,41,50,10,15,84,0,39,42,66,28,35,18,42,96,62,25,64,99,15,28,67,11,67,28,9,10,2,83,57,2,14,86,41,325,36,189,151,130,145,44,278,300,123,124,198,231,220,90,300,257,218,377,107,179,150,294,254,35,152,42,217,303,224,118,97,109,326,330,82,295,74,171,3672,3643,708,3870,1729,3895,1508,1016,1004,250,797,704,600,2560,4041,489,2058,5254,550,4124],[11,34,14,55,56,101,43,53,58,59,28,44,87,16,0,16,95,94,30,39,81,54,48,79,44,75,56,48,95,28,66,71,8,38,2,61,55,5,14,68,105,371,139,129,141,309,226,44,195,296,180,180,257,197,148,90,311,313,392,301,223,219,143,296,244,81,155,108,334,358,305,223,160,180,377,95,263,390,102,164,3619,3120,2538,3246,2496,3588,2123,1014,2481,878,1082,1567,1269,1786,3076,1644,1081,1400,1823,4095],[6,36,14,76,76,91,30,31,54,33,38,43,80,19,25,0,91,102,31,50,91,97,39,59,41,78,54,51,99,31,42,74,7,32,3,56,56,7,17,59,116,316,74,148,157,291,132,44,241,371,113,182,290,230,122,90,323,281,295,248,189,275,261,249,242,100,152,137,328,326,238,197,133,179,335,95,255,308,123,148,2356,3877,2819,5438,2857,4748,1655,1062,2135,910,1325,1555,2217,2484,2944,1300,1081,1400,1129,2758],[11,33,53,49,72,69,36,49,62,43,31,44,74,16,87,40,0,98,37,49,79,89,54,93,42,55,49,47,97,24,51,65,7,29,1,98,35,5,19,62,130,288,125,200,205,256,158,161,278,300,119,334,227,308,146,268,338,286,431,385,172,259,151,271,286,80,184,164,196,224,325,249,126,138,430,323,183,114,125,186,2827,4187,1803,3123,1743,5043,2980,996,3353,976,938,2665,1884,3239,3925,1235,4139,5470,1786,3571],[10,40,28,77,54,96,39,42,49,56,38,31,53,21,96,33,98,0,37,39,46,68,39,86,51,97,15,32,78,27,67,110,9,27,3,75,16,5,16,64,157,321,75,60,177,247,122,136,271,322,160,308,346,177,161,190,394,319,390,343,168,192,194,325,315,75,49,106,259,328,262,87,104,148,286,240,313,240,34,211,2889,4161,2689,4626,2785,4588,2252,948,3347,250,1158,2002,2110,2874,4513,1770,4065,4445,1537,3611],[10,27,44,71,21,59,36,48,59,33,10,15,63,15,55,51,84,33,0,18,27,94,38,30,56,73,15,48,61,11,18,28,10,10,2,65,33,2,26,46,41,347,36,177,134,151,195,44,268,313,49,119,228,79,166,90,236,205,175,430,108,296,199,278,270,35,128,42,91,325,281,124,138,184,427,219,82,367,88,156,2431,3750,1817,4292,2042,1358,1666,1018,1004,250,830,704,600,2163,3045,489,2906,4229,550,3543],[3,26,30,61,58,81,11,28,48,57,24,43,80,24,55,62,60,93,40,0,67,80,42,71,47,73,41,53,64,43,62,67,11,10,3,27,59,4,27,80,84,336,73,178,191,255,57,91,270,351,182,321,252,296,173,267,429,288,323,384,193,194,132,102,104,35,165,113,293,204,272,276,109,185,345,364,174,430,78,151,2859,4912,2257,4191,3281,4013,1781,1007,2904,784,1393,1733,1847,2251,2889,1452,2500,4142,1245,3774],[10,31,31,66,68,95,42,32,50,31,37,38,56,20,85,35,59,76,33,68,0,98,45,25,54,74,53,46,100,37,49,92,11,22,3,92,59,7,23,75,106,366,87,226,174,199,221,147,245,224,120,239,238,307,131,351,317,81,256,424,121,82,263,328,239,82,164,136,215,266,305,330,133,113,376,339,312,360,77,228,2664,4788,1787,3633,825,4734,2553,1142,2582,638,1307,2614,2240,2171,2557,1533,2227,3460,550,3252],[6,29,32,20,21,83,31,44,57,32,10,15,77,24,46,42,88,28,26,18,29,0,43,25,63,53,15,52,55,11,64,28,8,10,3,60,54,2,7,73,41,282,36,146,143,103,226,44,186,355,163,119,229,264,221,90,310,266,259,361,136,283,177,258,225,35,168,42,338,255,293,117,156,112,286,285,82,389,125,202,3792,4841,2209,4493,2715,3687,1323,700,1004,250,1062,704,600,1932,4781,489,2442,4864,550,3180],[10,30,39,46,21,98,32,54,59,42,10,15,70,22,42,37,83,31,26,18,24,80,0,28,59,65,15,32,73,11,37,28,10,10,3,56,52,2,14,87,41,339,36,126,177,131,181,44,158,229,127,89,293,298,197,90,316,249,264,372,126,246,190,204,247,35,144,42,318,362,170,122,43,187,312,255,82,324,81,205,3696,3692,1535,5168,3193,3832,1067,1008,1004,250,777,704,600,2998,3038,489,1575,3116,550,4595],[7,37,30,44,78,101,42,49,33,50,23,47,45,25,59,36,69,97,25,58,23,78,38,0,65,79,56,56,82,34,41,68,7,34,3,76,54,6,23,79,101,357,78,235,187,236,203,125,209,274,156,255,315,305,172,310,404,81,363,292,194,82,220,295,268,123,178,99,298,282,311,287,148,179,442,297,323,336,71,208,3633,4907,2218,3929,825,5092,2401,951,2577,933,1276,2768,2218,2240,3873,1544,3789,2966,550,3820],[10,35,32,40,72,29,32,14,55,57,20,46,56,19,50,34,68,88,33,40,59,51,55,89,0,96,45,60,66,42,64,65,9,20,3,64,53,4,25,60,111,348,108,156,204,183,166,171,230,242,183,296,99,286,161,301,282,217,307,265,141,235,170,335,377,92,148,119,206,289,283,241,112,145,424,276,209,430,70,189,2506,3857,2389,2751,3025,2784,1545,1132,3175,748,885,1455,1286,870,3579,1195,4238,2992,1568,2870],[7,32,53,51,64,113,36,33,40,40,24,51,85,14,74,50,91,107,23,52,60,92,57,93,64,0,59,16,107,43,58,82,6,35,3,97,37,2,18,54,103,321,36,173,123,315,145,101,162,326,179,287,299,194,215,224,348,204,109,333,196,278,152,353,238,107,124,84,188,92,292,283,86,108,328,202,292,270,83,64,4197,2900,1784,5022,2111,3739,2817,1194,3996,891,952,1976,1851,1907,4358,1798,4283,5243,1848,1324],[3,32,14,20,60,101,11,14,16,15,26,55,22,7,52,26,28,28,11,68,76,25,17,59,46,28,0,50,68,36,18,72,3,26,1,92,16,7,19,34,160,323,106,60,54,179,57,136,139,201,49,296,224,108,57,239,332,226,274,321,219,129,66,360,120,116,49,94,91,92,212,87,43,80,118,123,172,257,34,64,1092,4470,708,1371,825,1358,2014,1068,2160,250,818,2531,2128,870,1208,1251,3804,1400,1699,1324],[9,31,39,69,60,88,34,50,43,57,24,55,76,27,74,40,79,58,43,36,47,56,63,54,67,25,55,0,73,36,50,99,8,23,3,77,43,2,14,91,115,225,36,202,137,267,189,139,199,297,120,271,372,188,140,344,263,293,109,367,208,186,258,303,235,92,190,164,240,92,229,323,120,152,341,302,207,448,94,64,3324,4964,2390,5000,1998,4413,2298,1118,2552,754,824,2204,2101,2985,3173,1096,2873,4868,1745,1324],[6,33,31,65,21,94,39,36,41,33,22,59,80,22,84,52,76,98,36,40,60,73,54,71,49,56,52,46,0,40,55,59,10,33,3,84,41,6,17,46,88,277,109,182,212,210,154,89,221,358,193,197,352,189,128,346,431,259,399,227,216,291,252,303,357,105,140,109,278,270,368,279,120,136,234,240,217,343,101,146,1092,4842,2406,4295,2816,4237,2165,1162,3343,537,893,2029,600,1915,4663,1762,4066,3639,1622,3814],[3,35,14,20,67,88,11,14,16,15,26,36,22,7,99,24,28,110,11,37,52,25,17,80,36,31,47,35,74,0,18,87,3,24,1,90,44,7,17,55,82,277,94,60,54,244,57,108,176,182,49,297,337,133,57,294,439,175,284,224,191,153,66,215,183,83,153,133,91,92,93,242,43,79,128,145,82,222,34,64,1092,4780,708,1371,825,1358,2316,1061,3116,644,1151,1979,1896,870,1208,1420,3188,1400,2150,1324],[8,22,36,70,21,58,27,40,36,58,10,15,83,14,71,37,87,28,11,18,27,95,35,30,56,74,15,46,75,11,0,28,8,10,3,68,59,2,24,65,41,212,36,175,134,84,202,44,241,248,49,100,383,79,199,90,293,187,290,259,120,201,168,402,413,35,121,42,91,366,276,116,113,168,231,223,82,234,104,243,3934,3970,2214,2837,2707,1358,1234,953,1004,250,1340,704,600,2353,4426,489,1471,2842,550,4184],[3,37,14,20,66,60,11,14,16,15,10,30,22,7,63,24,28,79,11,42,71,25,17,86,37,45,48,40,69,38,18,0,3,35,1,78,39,4,13,23,106,335,120,60,54,211,57,118,172,280,49,333,364,132,57,329,260,237,388,263,142,133,66,283,162,72,150,93,91,92,321,208,43,126,196,167,219,249,34,64,1092,3776,708,1371,825,1358,1885,900,2636,950,1189,1453,2104,870,1208,1785,4296,1400,1787,1324],[10,23,47,49,21,58,43,49,16,44,10,15,22,24,58,48,99,28,25,18,32,61,67,25,48,70,15,34,72,11,59,28,0,10,3,65,34,2,18,23,41,265,36,132,136,84,200,44,258,321,190,89,273,269,211,90,291,276,172,308,81,203,244,300,335,35,105,42,361,319,166,114,89,140,368,281,82,246,79,174,3058,4153,2672,3525,2223,4884,1253,884,1004,250,808,704,600,2554,3432,489,1639,3431,550,4867],[3,43,14,20,62,61,11,14,16,15,27,44,22,7,79,30,28,77,11,18,74,25,17,94,45,34,44,38,81,36,18,69,3,0,1,27,37,6,13,42,97,327,114,60,54,300,57,95,166,305,49,274,252,138,57,289,367,252,421,226,196,94,66,102,104,35,111,162,91,92,296,240,43,111,118,128,229,182,34,64,1092,5081,708,1371,825,1358,2401,1135,3498,548,1179,2433,2079,870,1208,1648,2286,1400,1794,1324],[7,18,37,51,21,67,27,41,45,36,10,15,51,16,66,40,28,28,43,18,24,72,47,25,57,67,15,28,58,11,62,28,7,10,0,49,57,2,20,75,41,228,36,196,208,143,136,44,241,258,175,124,303,262,219,90,335,174,321,412,137,311,260,342,362,35,152,42,277,279,252,87,96,168,256,212,82,114,109,174,3117,4428,1842,3541,2576,5195,1693,749,1004,250,864,704,600,2062,2561,489,1870,4308,550,3067],[3,31,33,75,49,73,11,45,61,41,29,32,62,22,98,38,88,109,42,18,80,71,42,54,55,55,49,59,102,25,38,58,8,10,3,0,48,6,15,46,142,269,105,225,192,295,57,137,262,280,119,206,283,276,159,266,458,211,301,351,212,210,188,102,104,35,150,88,189,237,312,332,133,166,267,254,165,361,103,200,2965,4293,1973,4729,3124,5295,1923,888,3255,776,1333,1642,1520,2678,3047,1549,3776,4948,1287,4982],[11,26,29,77,67,109,31,48,61,43,25,57,81,18,82,44,96,28,29,69,74,83,64,71,68,63,15,59,94,24,36,101,10,37,3,84,0,7,26,89,156,335,139,60,206,205,130,168,211,301,191,273,329,249,153,339,324,316,288,379,162,207,210,334,291,81,49,96,239,189,295,87,109,178,232,299,260,258,34,230,4215,4459,1644,3261,1907,3900,2905,1097,2131,250,997,2735,1574,2969,3249,1123,4242,3916,2043,2800],[3,43,14,20,50,70,11,14,16,15,22,56,22,7,50,32,28,88,11,43,62,25,17,78,31,25,58,16,59,38,18,73,3,27,1,58,38,0,17,30,139,238,36,60,54,306,57,149,160,164,49,221,272,109,57,241,382,303,109,228,191,94,66,204,191,117,157,98,91,92,304,253,43,124,155,144,234,202,34,64,1092,4146,708,1371,825,1358,2220,1172,3531,642,769,1622,2189,870,1208,1742,4161,1400,1149,1324],[9,37,39,20,46,95,32,35,63,37,23,49,81,15,65,53,63,81,33,56,79,25,34,64,63,95,39,47,83,25,45,58,7,24,2,98,44,5,0,61,156,357,143,225,198,334,179,133,260,300,182,313,230,290,127,207,378,215,298,276,185,276,200,220,361,101,179,88,245,363,349,345,170,123,439,304,246,338,91,201,2953,4334,1625,3759,2417,3965,2084,1218,2363,527,1078,2520,1660,2660,4097,489,2864,4585,1105,2870],[11,35,42,78,65,101,43,30,16,59,10,39,22,18,66,32,81,101,39,42,47,71,45,77,64,99,53,57,82,34,60,28,3,29,3,77,43,4,20,0,90,363,112,229,115,221,181,123,204,312,161,217,313,214,188,345,354,290,360,318,188,196,222,369,340,103,154,148,287,281,297,287,96,170,365,371,287,298,114,238,2256,4281,2396,4121,2865,4757,2922,1015,3665,768,935,1983,2068,3335,3240,1856,2927,4073,2100,2929],[3,37,14,20,82,75,11,14,16,15,31,15,22,7,93,34,28,58,11,39,82,25,17,88,44,35,37,34,98,27,18,65,3,20,1,83,51,7,12,47,0,194,76,60,54,230,57,156,192,179,49,305,269,115,57,229,319,282,302,113,140,157,66,292,219,94,162,137,91,92,278,202,43,48,134,158,268,219,34,64,1092,4420,708,1371,825,1358,2918,710,3349,956,946,1723,1763,870,1208,1217,3721,1400,2034,1324],[9,25,35,69,65,96,37,48,38,57,37,31,46,27,51,35,110,109,25,61,72,86,67,80,46,83,47,43,100,23,68,85,6,22,3,104,57,4,20,71,93,0,127,230,114,245,168,113,230,305,184,348,310,307,57,292,295,246,297,309,119,273,66,394,260,81,192,137,303,319,301,183,134,188,115,273,169,344,76,242,2699,4751,2772,5181,2954,4616,2531,1106,2372,681,355,2733,2195,2142,4678,1182,2522,5058,2126,4396],[3,37,14,20,61,73,11,14,16,15,27,38,22,7,83,27,28,108,11,47,50,25,17,66,36,25,35,16,72,36,18,63,3,28,1,103,62,2,13,57,155,187,0,60,54,229,57,163,157,284,49,251,324,79,57,354,272,210,109,172,185,90,66,260,193,126,156,145,91,92,286,341,43,110,155,162,217,313,34,64,1092,4191,708,1371,825,1358,2380,851,3516,946,1311,2057,2108,870,1208,1449,2887,1400,1665,1324],[11,27,31,44,21,98,39,36,36,42,10,15,49,21,68,56,89,28,26,18,37,98,51,33,49,94,15,36,56,11,54,28,9,10,2,71,16,2,22,68,41,239,36,0,144,138,169,44,277,357,137,89,374,181,212,90,197,257,217,279,104,242,141,406,413,35,49,42,321,278,288,87,120,119,359,356,82,315,34,203,2861,3283,1833,4723,2345,3689,1296,739,1004,250,811,704,600,3140,4401,489,2660,3497,550,2732],[8,28,42,56,21,93,36,34,39,32,10,15,76,22,44,52,99,28,23,18,23,62,61,35,54,89,15,29,106,11,59,28,11,10,3,71,39,2,24,66,41,244,36,142,0,84,203,44,292,230,191,96,336,247,179,90,223,161,212,113,119,215,157,328,267,35,102,42,296,226,265,87,135,48,240,256,82,256,115,134,4199,2537,2425,3751,2194,4481,1119,1065,1004,250,1335,704,600,2707,3739,489,2113,4728,550,4857],[11,37,45,72,82,61,22,54,38,47,31,49,46,22,57,62,78,100,28,64,73,58,63,65,36,93,55,53,95,30,56,91,9,22,3,89,44,7,23,72,132,374,88,154,183,0,157,166,181,263,103,89,328,279,147,353,283,278,335,287,193,325,134,361,371,77,184,100,263,310,364,244,99,114,391,301,198,280,130,155,4161,4425,2358,3713,2533,4677,2793,310,3375,757,1255,2806,2321,3211,2891,1918,4288,4747,1881,4222],[3,18,28,42,21,80,11,32,53,50,10,15,55,16,43,56,97,28,27,18,24,99,55,31,54,52,15,44,97,11,69,28,10,10,3,27,45,2,18,82,41,359,36,239,204,92,0,44,159,233,108,114,379,222,224,90,191,169,200,436,132,194,230,102,104,35,114,42,217,225,161,102,165,163,300,367,82,369,93,224,4260,3247,2681,4006,2829,5187,1549,623,1004,250,897,704,600,2080,2603,489,2249,5234,550,3961],[3,31,14,20,49,106,11,14,16,15,39,34,22,7,25,16,28,76,11,55,88,25,17,81,43,40,34,38,66,40,18,111,3,36,1,66,63,7,14,48,145,349,118,60,54,171,57,0,186,173,49,186,210,137,57,90,407,166,296,309,189,101,66,337,127,89,167,108,91,92,239,289,43,109,142,95,304,293,34,64,1092,3893,708,1371,825,1358,2264,675,3942,772,1157,2169,1891,870,1208,1031,1081,1400,1739,1324],[6,23,38,49,61,93,30,38,61,15,35,34,71,21,92,39,64,82,38,65,79,79,48,87,65,81,47,56,99,22,59,83,9,36,2,102,52,7,25,47,126,317,86,148,164,258,145,162,0,240,141,245,279,303,122,309,267,239,300,237,58,285,180,370,408,103,168,42,335,324,298,315,113,177,339,251,291,366,134,176,3293,3717,1763,3690,1732,4933,748,1144,2043,708,1263,1573,2098,2691,3126,1324,3940,3966,1607,3329],[8,33,45,64,70,95,34,32,51,41,35,40,85,27,91,52,100,87,22,67,90,80,61,64,41,54,40,62,83,36,61,85,8,33,3,88,55,4,21,57,108,235,124,168,117,310,200,162,214,0,164,308,360,315,185,218,288,219,316,380,160,220,156,339,258,98,184,105,322,228,235,347,159,112,330,255,181,370,99,186,4175,5162,2479,1371,1654,3967,2180,1067,2179,692,1292,1420,2196,2511,3852,1798,3873,3550,2138,5001],[9,29,42,51,21,81,30,48,49,43,10,15,74,24,52,52,61,34,11,18,25,93,48,25,50,89,15,30,57,11,18,28,11,10,3,51,34,2,22,59,41,303,36,195,120,84,215,44,261,283,0,89,301,79,196,90,309,311,270,393,88,295,199,354,270,35,126,42,91,311,317,97,87,117,416,227,82,339,105,230,2345,4750,1513,2858,1884,1358,964,808,1004,250,1188,704,600,2354,3304,489,2583,2969,550,5159],[6,40,43,74,55,86,33,51,55,42,33,34,73,21,63,47,93,67,43,56,86,94,39,69,47,58,51,36,106,41,44,78,11,31,2,67,58,6,26,49,92,347,110,159,119,84,219,108,167,318,104,0,356,267,196,180,288,301,328,312,205,298,208,252,377,95,182,150,220,229,313,320,148,157,236,210,298,339,129,187,4346,4040,1760,4917,1777,3618,2791,310,2861,574,1281,2805,2213,2130,3355,1850,3530,4899,2158,4483],[10,37,42,70,49,29,38,14,47,35,38,36,62,19,88,39,88,108,29,42,64,69,34,51,18,94,59,57,88,41,52,99,6,38,2,58,54,4,27,70,156,284,116,189,136,240,114,125,186,273,103,287,0,159,210,286,354,255,412,243,132,234,145,354,213,94,178,107,210,225,344,226,111,125,250,309,228,390,127,134,3807,4569,2088,3166,1968,3208,2956,1014,3135,967,879,2739,1833,870,3890,1724,2236,4928,1418,3741],[11,31,40,53,67,65,23,34,62,45,37,42,54,14,85,54,77,110,11,62,46,84,46,64,44,83,32,55,75,29,18,67,6,20,3,88,59,7,24,52,155,369,129,220,118,276,131,175,211,376,49,207,281,0,226,211,383,322,404,301,221,189,231,347,330,73,180,97,91,350,269,183,171,164,457,295,192,308,83,159,3874,4784,1576,3484,2589,1358,2551,984,1004,639,1295,1687,1265,2989,3498,1335,3438,3384,1991,4688],[8,19,51,79,21,81,33,28,48,43,10,15,59,17,61,56,87,28,29,18,23,56,57,31,66,80,15,28,80,11,41,28,11,10,3,78,46,2,24,64,41,96,36,154,176,145,226,44,172,344,177,115,393,176,0,90,233,290,312,278,81,201,66,376,309,35,157,42,261,272,165,112,163,143,115,335,82,330,102,163,4051,2988,1575,3747,2664,4433,1155,928,1004,250,355,704,600,3307,4586,489,1753,3431,550,5243],[3,23,14,20,56,95,11,14,16,15,27,44,22,7,25,16,28,56,11,54,85,25,17,54,38,35,49,42,58,43,18,102,3,27,1,70,42,7,12,31,124,205,91,60,54,282,57,44,132,315,49,311,319,103,57,0,266,237,289,278,178,141,66,216,169,85,145,106,91,92,239,261,43,129,162,95,244,226,34,64,1092,4727,708,1371,825,1358,2986,633,2605,598,888,2144,1996,870,1208,1313,1081,1400,1550,1324],[9,36,41,41,80,73,33,32,48,36,27,30,52,21,78,52,94,84,25,38,90,82,43,99,44,91,34,47,76,24,60,106,8,21,2,68,57,6,24,79,92,327,137,134,125,207,167,120,183,350,161,283,354,302,181,320,0,306,350,322,168,232,174,313,371,110,154,136,242,196,231,272,101,102,238,232,314,254,77,251,2992,1297,1617,4420,1795,3695,1627,1145,3380,932,1327,704,1397,2627,2681,1824,3714,3764,2130,5124],[11,29,40,77,77,101,38,28,56,44,33,32,48,18,54,43,70,97,39,71,23,71,59,25,41,95,44,62,90,28,66,107,8,21,3,70,63,7,17,69,140,343,91,202,179,274,223,175,275,270,172,322,332,229,160,269,349,0,359,248,191,82,169,328,295,107,172,129,270,240,271,215,119,145,429,274,315,383,99,199,3626,5151,2749,2969,825,2873,2768,957,3048,877,989,2702,2062,2203,3393,1196,2445,3755,550,3990],[9,34,47,65,45,86,34,43,61,34,22,53,50,23,75,44,87,60,22,50,75,79,63,66,52,25,43,16,76,29,46,87,10,23,3,82,55,2,26,77,106,335,36,205,183,216,119,123,207,258,124,300,360,310,137,206,417,314,0,277,163,206,194,337,319,112,132,163,308,92,311,262,91,167,422,299,242,309,110,64,2205,4957,2032,3221,2395,4847,1687,858,3473,919,1154,1442,1267,1909,4321,1865,2599,3569,1251,1324],[9,41,34,48,67,80,34,40,54,44,21,15,68,16,80,60,78,93,28,46,64,70,64,74,70,55,49,54,94,35,67,73,6,27,3,84,62,5,19,55,41,277,82,215,54,228,153,122,277,332,171,254,340,235,159,271,399,292,420,0,207,235,167,371,222,74,162,95,215,361,352,252,133,48,271,239,300,427,98,204,2874,3284,2298,5104,2678,5199,2341,697,3208,830,1307,2372,1281,2832,4291,1162,2507,4952,1576,5141],[10,34,46,70,54,97,39,31,53,15,36,43,63,17,86,60,110,68,42,40,80,51,37,58,40,50,39,59,96,33,40,67,7,21,2,66,59,7,26,46,148,363,85,213,211,241,227,156,76,214,139,330,325,306,225,247,282,191,320,361,0,276,144,307,362,107,171,42,338,225,260,336,158,168,328,377,266,365,94,141,3726,3628,2736,4124,3138,5151,748,1143,3375,668,998,2625,2014,2835,3865,1215,3278,4807,1350,4211],[8,31,30,54,62,115,26,41,57,37,24,33,54,24,56,34,64,109,38,55,23,88,44,25,43,59,31,41,107,41,46,62,8,28,3,102,59,6,23,80,110,309,91,163,200,226,177,101,255,266,167,262,391,228,153,338,372,81,328,408,173,0,138,354,253,119,175,140,361,327,241,336,153,167,256,352,202,334,92,137,3159,4878,1689,3695,825,4607,1565,1131,3270,636,1265,1817,1922,2305,2865,1531,2632,5257,550,5015],[7,30,28,41,21,63,23,38,63,55,10,15,71,24,66,45,84,28,36,18,23,81,56,32,43,74,15,43,99,11,61,28,9,10,3,74,53,2,26,59,41,96,36,212,186,137,160,44,185,217,176,118,327,268,57,90,249,175,175,347,103,201,0,335,340,35,119,42,198,185,208,96,126,131,115,276,82,262,103,251,2471,4381,1687,3653,1980,2762,1571,783,1004,250,355,704,600,2669,3327,489,1643,4557,550,4780],[3,40,55,65,74,97,11,31,38,47,36,45,63,22,69,42,64,73,41,18,79,99,55,97,71,71,55,40,100,24,54,107,6,10,3,27,55,5,25,50,152,351,140,148,144,280,57,144,275,302,195,322,364,236,140,270,418,318,271,327,125,326,220,0,104,35,184,89,243,319,350,198,152,145,301,306,193,373,97,142,4157,4994,2126,2778,2664,3054,2010,984,3211,806,1239,1509,1272,2348,4660,1347,3558,5148,2120,4719],[3,40,38,56,50,113,11,50,47,58,21,34,77,15,78,48,64,81,26,18,73,72,57,50,44,79,58,57,68,35,59,81,9,10,2,27,41,4,26,87,118,377,130,132,187,181,57,110,169,350,107,265,354,277,150,223,383,167,308,279,177,211,201,102,0,35,143,115,342,358,290,257,120,159,384,284,298,455,69,200,3905,4173,1917,5050,2295,4831,2405,1094,2263,619,1171,1883,2313,1906,3434,1698,3792,3478,2161,3280],[3,29,14,20,59,91,11,14,16,15,38,56,22,7,79,28,28,87,11,18,63,25,17,80,37,51,50,37,68,23,18,102,3,10,1,27,38,4,12,59,150,318,76,60,54,281,57,165,203,216,49,230,197,150,57,196,357,188,292,298,160,132,66,102,104,0,191,122,91,92,212,240,43,150,168,190,247,253,34,64,1092,3227,708,1371,825,1358,1951,833,2096,535,854,2111,1579,870,1208,1166,3508,1400,1449,1324],[10,40,49,70,80,80,23,36,42,30,36,34,85,16,94,32,85,28,32,44,67,73,35,97,65,78,15,60,85,43,57,89,7,20,2,61,16,5,25,89,98,275,139,60,143,220,189,144,172,279,107,257,285,314,136,275,439,303,235,341,127,313,246,299,272,81,0,117,190,239,360,87,115,146,325,374,320,328,34,184,2641,3704,1636,3220,2458,4751,1746,1003,2648,250,892,2391,2322,2707,3413,1690,3456,5233,1929,4466],[3,26,14,20,50,89,11,14,16,15,30,50,22,7,86,22,28,76,11,45,73,25,17,62,33,44,53,47,91,37,18,78,3,28,1,82,44,5,15,45,143,204,140,60,54,213,57,169,76,230,49,294,244,142,57,206,332,265,235,179,58,119,66,187,145,120,148,0,91,92,281,312,43,82,171,156,302,234,34,64,1092,2736,708,1371,825,1358,748,1203,2829,907,965,1469,2131,870,1208,1113,2381,1400,1108,1410],[8,35,49,43,21,65,39,49,59,46,10,15,74,20,44,57,102,28,11,18,26,67,59,25,40,77,15,45,105,11,18,28,11,10,3,70,58,2,21,66,41,215,36,239,143,125,147,44,168,334,49,96,227,79,174,90,265,169,303,441,80,197,135,330,233,35,130,42,0,279,179,87,99,145,268,308,82,279,84,221,4279,3081,2506,5154,2688,1358,1071,961,1004,250,1179,704,617,1962,3598,489,1521,4015,550,3177],[6,34,45,52,21,68,43,39,44,58,10,15,87,26,65,45,100,28,25,18,37,79,39,25,48,25,15,16,89,11,69,28,11,10,3,61,44,2,26,71,41,368,36,239,145,143,138,44,257,365,145,110,205,211,187,90,228,181,109,239,118,230,205,239,264,35,131,42,340,0,290,87,88,165,292,217,82,400,124,64,3984,2844,1619,5178,1710,4346,1840,728,1004,250,1111,704,600,3479,3180,489,1515,5532,550,1324],[7,43,42,41,53,102,32,48,44,43,29,42,44,24,54,45,110,98,25,40,58,91,54,98,45,83,36,42,99,11,51,68,6,33,3,92,36,6,21,80,120,353,127,214,150,169,196,156,289,300,165,291,216,228,157,333,335,297,276,420,177,260,224,259,335,126,177,144,289,187,0,237,166,108,250,276,82,284,98,154,3585,5153,2199,2783,2686,2816,2257,1068,3366,815,1042,2626,1561,1790,1208,1394,4242,4856,1719,4982],[6,41,46,50,60,106,41,44,50,48,22,52,82,18,57,54,111,28,24,57,74,67,57,71,40,74,15,42,59,30,52,87,6,32,3,73,16,4,23,78,94,381,142,60,174,179,193,160,184,305,169,195,208,195,134,307,345,268,324,437,175,210,211,320,253,75,49,94,185,203,216,0,92,103,396,345,279,430,34,237,3081,4123,1982,4007,2516,4734,1802,970,3063,250,931,1644,1832,3257,2903,1376,2583,5080,1961,2834],[7,30,53,41,21,58,22,45,60,38,10,15,50,15,59,55,90,28,28,18,38,94,17,29,47,62,15,47,98,11,68,28,6,10,3,73,30,2,23,86,41,290,36,189,108,147,152,44,230,355,181,118,354,307,132,90,206,294,328,404,83,166,263,376,303,35,140,42,242,232,288,123,0,167,379,334,82,343,126,164,2251,4908,2417,3210,1913,4775,1126,1116,1004,250,1179,704,600,2233,3931,489,2765,4346,550,2883],[8,36,42,54,70,102,33,45,35,31,37,15,60,20,54,51,85,105,39,62,74,76,58,64,48,50,58,56,100,39,53,101,11,32,2,106,56,4,20,74,41,337,113,142,54,214,121,156,295,241,150,312,271,311,205,202,415,297,374,113,181,321,251,303,210,133,192,97,198,360,362,209,164,0,374,373,321,334,74,222,4228,4945,2539,3391,2293,4051,1729,925,3846,927,809,2385,1602,3295,3649,1729,3717,5045,2181,3888],[7,27,48,66,59,98,32,45,52,41,33,35,76,26,56,37,100,103,28,39,47,85,40,64,56,66,47,55,84,36,69,64,8,33,2,79,41,7,27,46,115,96,106,198,186,273,162,117,216,372,183,233,287,307,57,315,347,313,413,279,189,203,66,369,405,124,173,150,208,317,287,245,153,126,0,217,295,383,99,247,2677,5005,1588,4832,2910,3801,2032,1007,2401,616,355,1947,1859,2873,3826,1525,4208,3601,2172,2707],[7,37,14,63,66,68,36,45,38,44,32,45,49,23,25,16,85,98,37,47,52,85,62,62,54,63,42,58,104,40,44,88,7,33,2,84,51,4,22,64,127,253,78,227,128,321,156,44,200,302,123,352,341,286,202,90,363,308,336,374,199,274,209,341,299,76,174,102,216,345,251,305,91,174,403,0,274,291,116,195,2396,4644,2140,4875,2868,3287,2572,875,3587,974,1339,1504,1297,3298,4482,1056,1081,1400,1531,4777],[3,31,14,20,65,103,11,14,16,15,36,38,22,7,81,26,28,69,11,46,81,25,17,68,36,38,36,51,96,11,18,108,3,28,1,84,42,7,14,31,109,251,100,60,54,290,57,108,117,265,49,184,355,98,57,330,457,215,393,173,138,151,66,216,153,83,136,119,91,92,93,333,43,148,125,136,0,174,34,64,1092,2666,708,1371,825,1358,1736,756,3629,518,799,2392,1778,870,1208,1794,3026,1400,1254,1324],[9,31,37,50,67,111,39,51,60,43,30,38,48,23,81,63,28,110,37,60,84,53,54,53,56,78,38,63,94,24,53,107,9,30,1,100,50,6,23,71,159,315,82,158,119,250,187,169,216,295,120,279,348,185,199,340,322,238,309,312,195,277,232,384,314,82,162,150,340,234,293,274,127,138,238,268,243,0,107,218,3951,3559,2174,3258,2566,2887,1648,1007,2836,972,859,2487,1358,2282,3077,1279,2565,5292,1583,3694],[8,33,46,47,21,78,40,47,40,42,10,15,48,22,38,40,107,28,28,18,26,53,59,27,46,60,15,34,65,11,56,28,7,10,2,88,16,2,27,58,41,262,36,60,197,86,205,44,158,242,166,89,377,213,172,90,317,286,231,382,127,174,255,389,354,35,49,42,315,296,237,87,139,116,341,289,82,434,0,140,3675,3823,2205,5029,3252,4546,1029,859,1004,250,1196,704,622,2020,3940,489,2915,4039,550,3727],[6,24,55,45,21,65,41,28,50,52,10,15,68,21,69,33,105,28,38,18,26,52,59,35,59,25,15,16,77,11,59,28,8,10,3,53,49,2,23,91,41,374,36,231,168,139,141,44,152,190,165,89,323,276,179,90,323,198,109,377,121,289,243,241,247,35,189,42,301,92,228,108,164,149,322,285,82,441,114,0,3975,4743,2237,3313,2571,3097,1256,904,1004,250,1320,704,600,3252,3594,489,1462,2920,550,1324],[7,24,28,55,21,92,28,45,48,44,10,15,74,24,45,60,104,33,27,18,37,51,47,28,62,82,15,47,27,11,38,28,11,10,2,46,30,2,16,83,41,196,36,181,153,116,214,44,174,191,139,89,202,237,193,90,329,291,265,396,72,290,218,329,399,35,147,42,317,307,279,123,141,165,318,304,82,384,123,163,0,4371,2470,5380,3232,3526,1802,983,1004,250,717,704,600,1824,4088,489,2261,3483,550,4699],[7,35,39,76,58,107,34,30,52,48,26,55,74,24,70,57,69,105,34,57,84,70,43,85,63,69,58,51,75,22,38,64,7,36,2,88,36,7,17,55,159,337,78,217,173,244,226,104,255,292,146,282,372,307,144,254,116,227,315,311,198,307,220,342,373,104,154,91,362,210,280,224,101,145,416,199,264,313,88,129,4022,0,2050,3325,1733,3641,1835,1128,4012,767,1029,704,1398,2732,2734,1039,3319,4016,1939,3681],[8,11,52,70,21,92,40,30,38,31,10,15,63,7,48,38,90,28,26,18,30,85,42,25,41,69,15,42,92,11,36,28,6,10,3,61,42,2,21,73,41,282,36,192,157,125,144,44,172,357,99,111,207,160,118,90,299,254,245,341,81,168,235,229,384,35,156,42,184,302,276,87,86,146,331,268,82,331,71,186,3389,3908,0,4469,3112,3746,1840,1008,1004,250,979,704,600,2039,4747,489,2772,3125,550,3592],[6,33,38,67,21,106,25,38,38,56,10,15,57,18,51,60,76,28,34,18,43,93,53,35,59,81,15,45,100,11,51,28,7,10,2,66,37,2,19,55,41,346,36,199,203,148,150,44,299,95,182,89,321,164,171,90,282,265,330,249,99,324,180,386,344,35,186,42,288,255,285,87,132,114,231,373,82,326,85,193,2367,3299,1858,0,3015,3885,1179,884,1004,250,1135,704,600,2648,3969,489,1677,3841,550,3332],[8,31,41,50,21,100,29,37,49,53,10,15,61,19,55,47,64,28,26,18,23,93,36,25,40,97,15,47,61,11,64,28,8,10,3,76,31,2,27,80,41,312,36,187,169,98,225,44,201,302,99,89,372,248,206,90,260,81,215,419,70,82,145,335,376,35,120,42,284,353,317,87,123,125,412,249,82,427,82,135,2946,3951,2205,3383,0,2934,1108,670,1004,250,889,704,615,2924,2944,489,2786,4444,550,5199],[10,26,45,65,21,98,40,32,52,40,10,15,75,23,45,38,67,30,11,18,41,93,46,31,60,97,15,54,102,11,18,28,6,10,3,88,37,2,16,87,41,281,36,206,178,109,167,44,180,285,49,89,330,79,204,90,291,205,191,319,87,303,259,370,269,35,187,42,91,305,244,87,130,146,327,306,82,280,106,195,3959,4373,2159,2980,3042,0,1216,845,1004,250,765,704,600,3311,4416,489,2395,3941,550,3520],[10,35,29,60,68,100,39,51,61,15,33,54,54,22,53,63,65,83,43,50,51,53,49,52,62,70,32,39,93,28,39,111,6,36,2,94,59,7,19,75,82,326,84,230,166,228,184,137,76,206,163,189,287,315,125,307,302,309,311,350,58,271,138,308,250,125,140,42,303,335,295,261,137,138,390,371,311,271,104,140,4265,4503,1526,5438,1984,4121,0,1071,3127,668,1054,2378,2188,2089,3277,1228,3823,5327,1351,3776],[7,32,33,61,71,104,31,43,47,36,31,32,76,19,95,59,65,58,31,37,85,55,40,74,54,62,57,43,107,38,36,58,7,30,3,65,52,7,17,64,152,345,81,189,118,84,154,108,180,225,165,89,359,240,220,216,269,258,222,351,123,280,140,379,371,103,186,98,203,272,275,271,170,144,234,233,292,392,104,136,3684,4731,2560,3688,3197,3184,1497,0,3013,533,1006,2189,2022,2953,4647,1700,2707,3344,1923,2726],[3,43,14,20,81,68,11,14,16,15,28,53,22,7,93,31,28,68,11,71,47,25,17,99,28,53,35,32,74,23,18,94,3,34,1,72,38,4,23,31,110,282,116,60,54,277,57,117,207,323,49,292,274,79,57,201,455,315,324,179,212,175,66,222,219,74,127,142,91,92,347,339,43,90,210,154,170,253,34,64,1092,4454,708,1371,825,1358,2482,1154,0,970,1327,2714,1723,870,1208,1761,2369,1400,1685,1324],[3,32,14,20,75,108,11,14,16,15,25,37,22,7,75,19,28,28,11,45,58,25,17,82,38,47,15,51,86,36,18,68,3,29,1,74,16,5,14,33,152,212,102,60,54,256,57,91,119,285,49,206,294,79,57,305,396,186,240,292,145,104,66,312,118,110,49,127,91,92,293,87,43,103,155,175,279,214,34,64,1092,4372,708,1371,825,1358,2387,889,2071,0,1198,2266,1539,870,1208,1202,3772,1400,1731,1332],[9,26,34,47,83,73,29,38,38,46,24,45,65,23,95,58,66,64,40,71,76,53,38,70,48,64,39,46,71,28,64,101,9,24,3,74,57,4,21,57,125,96,91,148,110,312,189,122,270,307,110,291,288,213,57,345,427,183,356,262,231,198,66,279,307,124,182,88,294,359,299,183,117,170,115,232,302,444,133,158,3819,4828,1733,3853,2093,4957,1964,1190,2847,871,0,2263,2129,3120,4425,1168,3360,2845,1928,3786],[3,30,14,20,68,69,11,14,16,15,24,54,22,7,70,20,28,73,11,61,46,25,17,68,39,28,40,56,73,39,18,88,3,39,1,93,62,4,21,30,101,207,79,60,54,286,57,91,211,317,49,237,292,129,57,294,116,236,378,279,160,130,66,259,157,126,194,147,91,92,187,335,43,126,127,150,237,273,34,64,1092,1297,708,1371,825,1358,2195,700,3167,823,811,0,1280,870,1208,1430,4319,1400,1356,1395],[6,28,44,50,21,93,32,33,54,49,25,31,62,21,74,54,89,71,26,52,84,69,58,81,63,89,46,57,27,34,59,88,11,30,2,61,34,6,26,58,134,264,83,173,204,322,218,171,271,373,170,280,361,225,133,346,458,258,343,381,125,255,213,318,341,119,178,154,309,364,352,247,142,113,275,293,214,359,81,238,1092,3948,1961,3434,2279,5087,1713,1071,2447,642,1084,2216,0,2001,2918,1774,2625,3382,1285,3299],[11,35,43,52,21,29,27,14,48,41,10,15,74,21,72,39,89,28,37,18,40,71,59,31,18,99,15,31,103,11,46,28,7,10,3,60,51,2,17,73,41,313,36,179,137,144,131,44,193,301,169,89,99,313,184,90,284,182,168,334,138,198,229,357,256,35,167,42,281,241,280,103,167,187,238,284,82,361,132,135,4067,4402,1474,5271,1956,3765,1232,609,1004,250,1416,704,600,0,3899,489,2343,4855,550,3500],[11,29,49,41,21,64,30,41,54,33,10,15,66,16,38,54,77,28,27,18,23,90,56,30,54,61,15,36,71,11,44,28,11,10,2,65,54,2,15,60,41,352,36,204,131,133,214,44,173,242,145,95,277,237,174,90,199,283,222,362,97,207,212,268,302,35,115,42,213,347,93,94,138,187,369,327,82,362,128,232,4202,2999,2374,3807,2519,4075,1289,684,1004,250,1406,704,600,2295,0,489,2120,3344,550,3265],[3,25,14,20,56,83,11,14,16,15,33,46,22,7,92,27,28,93,11,39,88,25,17,84,28,51,35,60,54,36,18,81,3,24,1,69,43,7,7,53,115,273,135,60,54,287,57,132,128,205,49,178,246,133,57,210,256,295,351,327,184,110,66,329,178,119,129,161,91,92,303,185,43,122,173,113,277,263,34,64,1092,3155,708,1371,825,1358,1545,961,3947,664,1214,1445,1979,870,1208,0,2964,1400,1680,1398],[10,24,14,68,64,113,37,40,39,33,30,56,76,19,25,16,61,71,42,54,63,75,64,81,37,68,58,42,64,31,41,85,9,29,2,103,36,4,18,71,162,234,121,141,207,265,129,44,261,377,107,329,333,309,126,90,428,218,337,324,213,192,196,286,401,124,190,163,325,235,366,195,151,118,392,95,206,273,71,236,4121,3569,2813,4630,2950,3877,2582,816,3361,801,1372,1651,1443,2117,4764,1869,0,1400,1564,5045],[8,32,14,42,21,90,24,42,57,41,10,15,53,27,25,16,64,28,28,18,30,89,45,35,51,88,15,55,85,11,52,28,10,10,2,59,47,2,18,91,41,267,36,160,135,96,192,44,277,356,184,89,255,236,184,90,229,161,226,301,75,206,257,226,379,35,139,42,257,314,287,120,170,111,402,95,82,230,69,213,2221,2994,2695,3048,2003,3740,1206,910,1004,250,995,704,600,1885,4507,489,1081,0,550,4658],[3,26,14,20,44,85,11,14,16,15,36,43,22,7,59,31,28,69,11,36,23,25,17,25,25,43,57,44,88,23,18,68,3,38,1,65,43,5,14,46,107,187,119,60,54,304,57,147,174,298,49,211,284,142,57,270,462,81,343,289,186,82,66,191,136,90,118,154,91,92,300,207,43,108,171,188,237,191,34,64,1092,3233,708,1371,825,1358,2617,1212,2350,521,1009,1755,1954,870,1208,1888,3721,1400,0,1324],[10,28,46,51,45,92,39,49,55,45,34,46,49,16,86,55,75,102,32,47,62,79,47,54,56,25,30,16,75,40,51,74,8,36,3,89,60,2,19,68,153,356,36,172,112,319,171,162,163,314,193,226,234,240,151,258,347,298,109,378,154,227,154,298,406,137,167,121,351,92,338,176,108,128,269,215,257,356,105,64,4020,4742,2155,4561,2949,3688,1971,1101,2712,711,1239,2552,2179,3122,2888,1568,2869,3515,2003,0],];
precedences = [{25},{},{9},{},{},{22},{37},{},{},{},{},{},{},{},{38},{30},{},{},{61},{},{},{},{},{},{55,77},{},{54},{},{},{24},{},{},{},{49},{},{37},{91,4},{35,25},{},{},{},{},{},{37},{61},{3},{61},{},{35},{},{},{34},{},{},{},{},{},{},{},{},{48,56},{},{99,70},{},{},{},{},{},{},{47},{},{},{},{},{},{},{},{58},{},{},{},{},{},{6},{27},{},{},{39},{64},{},{},{36},{89,100},{1},{6,45},{},{},{},{30},{30},];
required_resource = [[0,0,0,0,0,0,0,0,0,0],[0,3,3,4,2,4,3,1,0,3],[0,0,0,0,0,0,0,0,0,0],[0,0,0,0,0,0,0,0,0,0],[4,0,0,0,2,0,1,0,0,4],[4,2,2,3,1,3,4,3,4,2],[0,0,0,0,0,0,0,0,0,0],[0,0,0,0,0,0,0,0,0,0],[0,0,0,0,0,0,0,0,0,0],[0,0,0,0,0,0,0,0,0,0],[0,4,4,1,2,2,4,0,0,0],[4,4,3,3,0,0,3,3,0,1],[0,1,3,4,1,3,1,0,0,0],[0,0,0,0,0,0,0,0,0,0],[2,0,0,0,0,0,4,2,0,2],[4,0,0,0,0,0,1,3,0,2],[4,2,4,0,3,0,1,3,2,3],[2,0,0,0,4,0,3,0,0,0],[0,0,0,0,0,0,0,0,0,0],[1,4,0,3,0,2,0,1,0,3],[2,1,3,0,2,1,0,1,4,3],[0,0,0,0,0,0,0,0,0,0],[0,0,0,0,0,0,0,0,0,0],[3,4,1,0,3,4,0,2,3,3],[2,1,4,4,4,4,4,3,2,4],[0,0,0,0,0,0,2,0,0,0],[3,0,0,0,4,0,3,0,0,0],[0,0,0,0,0,0,4,0,0,0],[1,0,0,0,4,0,2,0,0,4],[3,4,2,4,0,3,0,3,0,2],[0,0,0,0,0,0,0,0,0,0],[0,2,3,3,1,1,4,0,0,0],[0,0,0,0,0,0,0,0,0,0],[2,2,0,2,0,4,0,1,0,2],[0,0,0,0,0,0,0,0,0,0],[4,4,0,1,0,3,0,1,0,3],[3,0,0,0,4,0,3,0,0,0],[0,0,0,0,0,0,4,0,0,0],[4,1,0,3,4,1,2,1,3,2],[0,4,4,3,2,4,2,0,0,0],[1,1,1,2,0,0,2,2,0,4],[1,4,3,3,3,0,2,4,2,2],[0,0,0,0,0,0,3,0,0,0],[0,0,0,0,0,0,0,0,0,0],[0,0,0,0,0,0,0,0,0,0],[0,0,0,0,3,0,0,0,0,0],[0,0,0,0,0,0,0,0,0,0],[3,0,0,0,0,0,1,4,0,2],[4,0,1,1,4,0,2,2,4,0],[0,1,4,4,0,0,0,0,0,2],[0,0,0,0,0,0,0,0,0,0],[0,0,0,0,4,0,0,0,0,0],[2,1,4,3,4,1,4,1,3,2],[0,1,4,0,0,4,0,0,4,3],[0,0,0,0,0,0,0,0,0,0],[4,0,0,0,0,0,1,4,0,1],[3,0,4,0,0,0,1,1,2,0],[2,2,4,0,2,3,0,4,4,2],[0,0,0,0,0,0,3,0,0,0],[3,3,4,1,0,0,1,2,0,2],[4,0,2,1,2,0,3,1,4,0],[4,2,1,0,4,1,0,1,2,1],[0,0,0,0,0,0,0,0,0,0],[3,4,0,2,0,3,0,3,0,4],[4,4,0,4,0,2,0,1,0,4],[3,3,0,1,0,3,0,3,0,2],[4,0,0,0,4,0,3,0,0,0],[1,0,4,4,4,0,2,4,2,0],[0,0,0,0,0,0,0,0,0,0],[0,0,0,0,0,0,0,0,0,0],[1,2,4,2,0,2,0,3,0,2],[2,0,0,0,3,0,1,0,0,0],[0,0,0,0,0,0,0,0,0,0],[4,4,3,2,0,0,1,4,0,1],[1,1,4,2,4,0,4,2,2,3],[2,0,0,0,0,0,2,1,0,1],[2,2,2,1,0,2,0,3,0,1],[2,3,1,0,4,0,3,1,2,3],[0,0,0,0,0,0,0,0,0,0],[0,0,0,0,0,0,0,0,0,0],[0,0,0,0,0,0,0,0,0,0],[4,0,4,0,0,0,4,2,1,0],[0,0,0,0,0,0,0,0,0,0],[0,0,0,0,0,0,0,0,0,0],[0,0,0,0,0,0,0,0,0,0],[0,0,0,0,0,0,0,0,0,0],[1,0,1,2,3,0,2,1,4,0],[0,0,0,0,4,0,0,0,0,0],[0,4,4,0,0,3,0,0,2,2],[3,0,0,0,3,0,3,0,0,0],[2,1,2,3,4,0,4,1,1,3],[2,0,3,0,0,0,1,4,2,0],[2,0,0,0,2,0,2,0,0,4],[0,0,0,0,0,0,0,0,0,0],[0,0,0,0,0,0,0,0,0,0],[4,3,0,4,4,3,2,3,2,4],[1,0,0,0,0,0,3,2,0,4],[0,0,0,0,0,0,0,0,0,0],[3,2,2,0,3,1,0,3,3,3],[0,0,0,0,0,0,2,0,0,0],];
n_res_periods = [19,13,23,17,40,17,18,79,12,11,];
res_period_start = [[0,10573,21146,31719,42292,52865,63438,74011,84584,95157,105730,116303,126876,137449,148022,158595,169168,179741,190314,0,0,0,0,0,0,0,0,0,0,0,0,0,0,0,0,0,0,0,0,0,0,0,0,0,0,0,0,0,0,0,0,0,0,0,0,0,0,0,0,0,0,0,0,0,0,0,0,0,0,0,0,0,0,0,0,0,0,0,0],[0,15449,30898,46347,61796,77245,92694,108143,123592,139041,154490,169939,185388,0,0,0,0,0,0,0,0,0,0,0,0,0,0,0,0,0,0,0,0,0,0,0,0,0,0,0,0,0,0,0,0,0,0,0,0,0,0,0,0,0,0,0,0,0,0,0,0,0,0,0,0,0,0,0,0,0,0,0,0,0,0,0,0,0,0],[0,8969,17938,26907,35876,44845,53814,62783,71752,80721,89690,98659,107628,116597,125566,134535,143504,152473,161442,170411,179380,188349,197318,0,0,0,0,0,0,0,0,0,0,0,0,0,0,0,0,0,0,0,0,0,0,0,0,0,0,0,0,0,0,0,0,0,0,0,0,0,0,0,0,0,0,0,0,0,0,0,0,0,0,0,0,0,0,0,0],[0,11845,23690,35535,47380,59225,71070,82915,94760,106605,118450,130295,142140,153985,165830,177675,189520,0,0,0,0,0,0,0,0,0,0,0,0,0,0,0,0,0,0,0,0,0,0,0,0,0,0,0,0,0,0,0,0,0,0,0,0,0,0,0,0,0,0,0,0,0,0,0,0,0,0,0,0,0,0,0,0,0,0,0,0,0,0],[0,5022,10044,15066,20088,25110,30132,35154,40176,45198,50220,55242,60264,65286,70308,75330,80352,85374,90396,95418,100440,105462,110484,115506,120528,125550,130572,135594,140616,145638,150660,155682,160704,165726,170748,175770,180792,185814,190836,195858,0,0,0,0,0,0,0,0,0,0,0,0,0,0,0,0,0,0,0,0,0,0,0,0,0,0,0,0,0,0,0,0,0,0,0,0,0,0,0],[0,12274,24548,36822,49096,61370,73644,85918,98192,110466,122740,135014,147288,159562,171836,184110,196384,0,0,0,0,0,0,0,0,0,0,0,0,0,0,0,0,0,0,0,0,0,0,0,0,0,0,0,0,0,0,0,0,0,0,0,0,0,0,0,0,0,0,0,0,0,0,0,0,0,0,0,0,0,0,0,0,0,0,0,0,0,0],[0,11337,22674,34011,45348,56685,68022,79359,90696,102033,113370,124707,136044,147381,158718,170055,181392,192729,0,0,0,0,0,0,0,0,0,0,0,0,0,0,0,0,0,0,0,0,0,0,0,0,0,0,0,0,0,0,0,0,0,0,0,0,0,0,0,0,0,0,0,0,0,0,0,0,0,0,0,0,0,0,0,0,0,0,0,0,0],[0,2561,5122,7683,10244,12805,15366,17927,20488,23049,25610,28171,30732,33293,35854,38415,40976,43537,46098,48659,51220,53781,56342,58903,61464,64025,66586,69147,71708,74269,76830,79391,81952,84513,87074,89635,92196,94757,97318,99879,102440,105001,107562,110123,112684,115245,117806,120367,122928,125489,128050,130611,133172,135733,138294,140855,143416,145977,148538,151099,153660,156221,158782,161343,163904,166465,169026,171587,174148,176709,179270,181831,184392,186953,189514,192075,194636,197197,199758],[0,17657,35314,52971,70628,88285,105942,123599,141256,158913,176570,194227,0,0,0,0,0,0,0,0,0,0,0,0,0,0,0,0,0,0,0,0,0,0,0,0,0,0,0,0,0,0,0,0,0,0,0,0,0,0,0,0,0,0,0,0,0,0,0,0,0,0,0,0,0,0,0,0,0,0,0,0,0,0,0,0,0,0,0],[0,19387,38774,58161,77548,96935,116322,135709,155096,174483,193870,0,0,0,0,0,0,0,0,0,0,0,0,0,0,0,0,0,0,0,0,0,0,0,0,0,0,0,0,0,0,0,0,0,0,0,0,0,0,0,0,0,0,0,0,0,0,0,0,0,0,0,0,0,0,0,0,0,0,0,0,0,0,0,0,0,0,0,0],];
res_period_end = [[10573,21146,31719,42292,52865,63438,74011,84584,95157,105730,116303,126876,137449,148022,158595,169168,179741,190314,200000,0,0,0,0,0,0,0,0,0,0,0,0,0,0,0,0,0,0,0,0,0,0,0,0,0,0,0,0,0,0,0,0,0,0,0,0,0,0,0,0,0,0,0,0,0,0,0,0,0,0,0,0,0,0,0,0,0,0,0,0],[15449,30898,46347,61796,77245,92694,108143,123592,139041,154490,169939,185388,200000,0,0,0,0,0,0,0,0,0,0,0,0,0,0,0,0,0,0,0,0,0,0,0,0,0,0,0,0,0,0,0,0,0,0,0,0,0,0,0,0,0,0,0,0,0,0,0,0,0,0,0,0,0,0,0,0,0,0,0,0,0,0,0,0,0,0],[8969,17938,26907,35876,44845,53814,62783,71752,80721,89690,98659,107628,116597,125566,134535,143504,152473,161442,170411,179380,188349,197318,200000,0,0,0,0,0,0,0,0,0,0,0,0,0,0,0,0,0,0,0,0,0,0,0,0,0,0,0,0,0,0,0,0,0,0,0,0,0,0,0,0,0,0,0,0,0,0,0,0,0,0,0,0,0,0,0,0],[11845,23690,35535,47380,59225,71070,82915,94760,106605,118450,130295,142140,153985,165830,177675,189520,200000,0,0,0,0,0,0,0,0,0,0,0,0,0,0,0,0,0,0,0,0,0,0,0,0,0,0,0,0,0,0,0,0,0,0,0,0,0,0,0,0,0,0,0,0,0,0,0,0,0,0,0,0,0,0,0,0,0,0,0,0,0,0],[5022,10044,15066,20088,25110,30132,35154,40176,45198,50220,55242,60264,65286,70308,75330,80352,85374,90396,95418,100440,105462,110484,115506,120528,125550,130572,135594,140616,145638,150660,155682,160704,165726,170748,175770,180792,185814,190836,195858,200000,0,0,0,0,0,0,0,0,0,0,0,0,0,0,0,0,0,0,0,0,0,0,0,0,0,0,0,0,0,0,0,0,0,0,0,0,0,0,0],[12274,24548,36822,49096,61370,73644,85918,98192,110466,122740,135014,147288,159562,171836,184110,196384,200000,0,0,0,0,0,0,0,0,0,0,0,0,0,0,0,0,0,0,0,0,0,0,0,0,0,0,0,0,0,0,0,0,0,0,0,0,0,0,0,0,0,0,0,0,0,0,0,0,0,0,0,0,0,0,0,0,0,0,0,0,0,0],[11337,22674,34011,45348,56685,68022,79359,90696,102033,113370,124707,136044,147381,158718,170055,181392,192729,200000,0,0,0,0,0,0,0,0,0,0,0,0,0,0,0,0,0,0,0,0,0,0,0,0,0,0,0,0,0,0,0,0,0,0,0,0,0,0,0,0,0,0,0,0,0,0,0,0,0,0,0,0,0,0,0,0,0,0,0,0,0],[2561,5122,7683,10244,12805,15366,17927,20488,23049,25610,28171,30732,33293,35854,38415,40976,43537,46098,48659,51220,53781,56342,58903,61464,64025,66586,69147,71708,74269,76830,79391,81952,84513,87074,89635,92196,94757,97318,99879,102440,105001,107562,110123,112684,115245,117806,120367,122928,125489,128050,130611,133172,135733,138294,140855,143416,145977,148538,151099,153660,156221,158782,161343,163904,166465,169026,171587,174148,176709,179270,181831,184392,186953,189514,192075,194636,197197,199758,200000],[17657,35314,52971,70628,88285,105942,123599,141256,158913,176570,194227,200000,0,0,0,0,0,0,0,0,0,0,0,0,0,0,0,0,0,0,0,0,0,0,0,0,0,0,0,0,0,0,0,0,0,0,0,0,0,0,0,0,0,0,0,0,0,0,0,0,0,0,0,0,0,0,0,0,0,0,0,0,0,0,0,0,0,0,0],[19387,38774,58161,77548,96935,116322,135709,155096,174483,193870,200000,0,0,0,0,0,0,0,0,0,0,0,0,0,0,0,0,0,0,0,0,0,0,0,0,0,0,0,0,0,0,0,0,0,0,0,0,0,0,0,0,0,0,0,0,0,0,0,0,0,0,0,0,0,0,0,0,0,0,0,0,0,0,0,0,0,0,0,0],];
res_period_capacity = [[10,12,14,14,16,17,19,15,16,18,17,19,17,14,0,15,16,14,12,0,0,0,0,0,0,0,0,0,0,0,0,0,0,0,0,0,0,0,0,0,0,0,0,0,0,0,0,0,0,0,0,0,0,0,0,0,0,0,0,0,0,0,0,0,0,0,0,0,0,0,0,0,0,0,0,0,0,0,0],[24,21,20,19,21,19,20,16,0,18,0,17,0,0,0,0,0,0,0,0,0,0,0,0,0,0,0,0,0,0,0,0,0,0,0,0,0,0,0,0,0,0,0,0,0,0,0,0,0,0,0,0,0,0,0,0,0,0,0,0,0,0,0,0,0,0,0,0,0,0,0,0,0,0,0,0,0,0,0],[20,19,17,16,17,19,19,17,18,16,14,0,12,10,8,11,0,13,15,17,18,19,21,0,0,0,0,0,0,0,0,0,0,0,0,0,0,0,0,0,0,0,0,0,0,0,0,0,0,0,0,0,0,0,0,0,0,0,0,0,0,0,0,0,0,0,0,0,0,0,0,0,0,0,0,0,0,0,0],[21,21,22,22,19,19,19,17,15,14,16,19,18,18,20,18,19,0,0,0,0,0,0,0,0,0,0,0,0,0,0,0,0,0,0,0,0,0,0,0,0,0,0,0,0,0,0,0,0,0,0,0,0,0,0,0,0,0,0,0,0,0,0,0,0,0,0,0,0,0,0,0,0,0,0,0,0,0,0],[19,18,19,21,19,17,19,18,17,18,18,19,21,21,19,18,20,21,19,20,18,18,15,16,16,16,15,13,10,12,13,12,11,0,12,15,13,15,13,0,0,0,0,0,0,0,0,0,0,0,0,0,0,0,0,0,0,0,0,0,0,0,0,0,0,0,0,0,0,0,0,0,0,0,0,0,0,0,0],[20,22,19,18,17,17,17,0,0,14,13,12,0,11,9,9,13,0,0,0,0,0,0,0,0,0,0,0,0,0,0,0,0,0,0,0,0,0,0,0,0,0,0,0,0,0,0,0,0,0,0,0,0,0,0,0,0,0,0,0,0,0,0,0,0,0,0,0,0,0,0,0,0,0,0,0,0,0,0],[8,11,15,15,14,15,12,11,12,0,15,0,13,11,12,0,13,12,0,0,0,0,0,0,0,0,0,0,0,0,0,0,0,0,0,0,0,0,0,0,0,0,0,0,0,0,0,0,0,0,0,0,0,0,0,0,0,0,0,0,0,0,0,0,0,0,0,0,0,0,0,0,0,0,0,0,0,0,0],[26,26,27,25,22,19,17,19,17,16,16,16,16,19,19,18,15,18,17,19,16,13,11,14,13,15,18,19,0,21,19,0,20,18,20,21,0,21,21,23,0,0,19,19,19,19,17,16,13,13,14,16,18,18,17,0,14,16,13,14,11,13,12,10,12,10,0,11,0,13,15,13,15,0,14,14,17,16,0],[14,14,16,18,20,17,0,0,17,0,17,18,0,0,0,0,0,0,0,0,0,0,0,0,0,0,0,0,0,0,0,0,0,0,0,0,0,0,0,0,0,0,0,0,0,0,0,0,0,0,0,0,0,0,0,0,0,0,0,0,0,0,0,0,0,0,0,0,0,0,0,0,0,0,0,0,0,0,0],[16,15,14,13,13,16,19,15,17,16,0,0,0,0,0,0,0,0,0,0,0,0,0,0,0,0,0,0,0,0,0,0,0,0,0,0,0,0,0,0,0,0,0,0,0,0,0,0,0,0,0,0,0,0,0,0,0,0,0,0,0,0,0,0,0,0,0,0,0,0,0,0,0,0,0,0,0,0,0],];
